%chk=CH3F.chk
# b3lyp/3-21g opt freq geom=connectivity

Title Card Required

0 1
 C                 -2.20315012   -0.01653956    0.46438818
 H                 -1.84649570   -1.02534956    0.46438818
 H                 -1.84647728    0.48785863    1.33803968
 H                 -1.84647728    0.48785863   -0.40926333
 F                 -3.55315012   -0.01652293    0.46438818

 1 2 1.0 3 1.0 4 1.0 5 1.0
 2
 3
 4
 5

