%chk=formic_acid_dimer.chk
# b3lyp/6-31g(d) geom=connectivity

Title Card Required

0 1
 C                  2.12399400   -0.22275200    0.00218700
 O                  1.25764100   -1.09533700   -0.03767100
 O                  1.71416400    1.07077100    0.01796500
 H                  3.22302500   -0.31388400    0.02838400
 H                  0.74466600    1.12248400   -0.00573300
 C                 -2.13901100    0.18273700   -0.01751200
 O                 -1.35349600    1.12953400   -0.00725500
 O                 -1.61695800   -1.06873600    0.03430200
 H                 -3.24113500    0.17485100   -0.06354500
 H                 -0.64725900   -1.03321900    0.07411400

 1 2 2.0 3 1.0 4 1.0
 2
 3 5 1.0
 4
 5
 6 7 2.0 8 1.0 9 1.0
 7
 8 10 1.0
 9
 10

