Job Start Time: Fri Feb 13 22:19:24 MST 2026
SLURM Job ID: 781375
SLURM Job Name: ibuprofen
 Entering Gaussian System, Link 0=/opt/apps/Gaussian/G16C/g16/g16
 Initial command:
 /opt/apps/Gaussian/G16C/g16/l1.exe "/tmp/781375/Gau-1544398.inp" -scrdir="/tmp/781375/"
 Entering Link 1 = /opt/apps/Gaussian/G16C/g16/l1.exe PID=   1544399.
  
 Copyright (c) 1988-2019, Gaussian, Inc.  All Rights Reserved.
  
 This is part of the Gaussian(R) 16 program.  It is based on
 the Gaussian(R) 09 system (copyright 2009, Gaussian, Inc.),
 the Gaussian(R) 03 system (copyright 2003, Gaussian, Inc.),
 the Gaussian(R) 98 system (copyright 1998, Gaussian, Inc.),
 the Gaussian(R) 94 system (copyright 1995, Gaussian, Inc.),
 the Gaussian 92(TM) system (copyright 1992, Gaussian, Inc.),
 the Gaussian 90(TM) system (copyright 1990, Gaussian, Inc.),
 the Gaussian 88(TM) system (copyright 1988, Gaussian, Inc.),
 the Gaussian 86(TM) system (copyright 1986, Carnegie Mellon
 University), and the Gaussian 82(TM) system (copyright 1983,
 Carnegie Mellon University). Gaussian is a federally registered
 trademark of Gaussian, Inc.
  
 This software contains proprietary and confidential information,
 including trade secrets, belonging to Gaussian, Inc.
  
 This software is provided under written license and may be
 used, copied, transmitted, or stored only in accord with that
 written license.
  
 The following legend is applicable only to US Government
 contracts under FAR:
  
                    RESTRICTED RIGHTS LEGEND
  
 Use, reproduction and disclosure by the US Government is
 subject to restrictions as set forth in subparagraphs (a)
 and (c) of the Commercial Computer Software - Restricted
 Rights clause in FAR 52.227-19.
  
 Gaussian, Inc.
 340 Quinnipiac St., Bldg. 40, Wallingford CT 06492
  
  
 ---------------------------------------------------------------
 Warning -- This program may not be used in any manner that
 competes with the business of Gaussian, Inc. or will provide
 assistance to any competitor of Gaussian, Inc.  The licensee
 of this program is prohibited from giving any competitor of
 Gaussian, Inc. access to this program.  By using this program,
 the user acknowledges that Gaussian, Inc. is engaged in the
 business of creating and licensing software in the field of
 computational chemistry and represents and warrants to the
 licensee that it is not a competitor of Gaussian, Inc. and that
 it will not use this program in any manner prohibited above.
 ---------------------------------------------------------------
  

 Cite this work as:
 Gaussian 16, Revision C.01,
 M. J. Frisch, G. W. Trucks, H. B. Schlegel, G. E. Scuseria, 
 M. A. Robb, J. R. Cheeseman, G. Scalmani, V. Barone, 
 G. A. Petersson, H. Nakatsuji, X. Li, M. Caricato, A. V. Marenich, 
 J. Bloino, B. G. Janesko, R. Gomperts, B. Mennucci, H. P. Hratchian, 
 J. V. Ortiz, A. F. Izmaylov, J. L. Sonnenberg, D. Williams-Young, 
 F. Ding, F. Lipparini, F. Egidi, J. Goings, B. Peng, A. Petrone, 
 T. Henderson, D. Ranasinghe, V. G. Zakrzewski, J. Gao, N. Rega, 
 G. Zheng, W. Liang, M. Hada, M. Ehara, K. Toyota, R. Fukuda, 
 J. Hasegawa, M. Ishida, T. Nakajima, Y. Honda, O. Kitao, H. Nakai, 
 T. Vreven, K. Throssell, J. A. Montgomery, Jr., J. E. Peralta, 
 F. Ogliaro, M. J. Bearpark, J. J. Heyd, E. N. Brothers, K. N. Kudin, 
 V. N. Staroverov, T. A. Keith, R. Kobayashi, J. Normand, 
 K. Raghavachari, A. P. Rendell, J. C. Burant, S. S. Iyengar, 
 J. Tomasi, M. Cossi, J. M. Millam, M. Klene, C. Adamo, R. Cammi, 
 J. W. Ochterski, R. L. Martin, K. Morokuma, O. Farkas, 
 J. B. Foresman, and D. J. Fox, Gaussian, Inc., Wallingford CT, 2019.
 
 ******************************************
 Gaussian 16:  AS64L-G16RevC.01  3-Jul-2019
                13-Feb-2026 
 ******************************************
 %chk=ibuprofen.chk
 %nproc=16
 Will use up to   16 processors via shared memory.
 %mem=96GB
 -----------------------------
 # TPSSTPSS/def2TZVP emp=GD3BJ
 -----------------------------
 1/38=1,172=1/1;
 2/12=2,17=6,18=5,40=1/2;
 3/5=44,7=101,11=2,25=1,30=1,74=2523,124=41/1,2,3;
 4//1;
 5/5=2,38=5/2;
 6/7=2,8=2,9=2,10=2,28=1/1;
 99/5=1,9=1/99;
 ------------------------
 TPSS Beck Johnson damped
 ------------------------
 Symbolic Z-matrix:
 Charge =  0 Multiplicity = 1
 O                    -4.4457   -1.0032    0.4113 
 O                    -2.4005   -1.9114    0.0531 
 C                     3.9024   -0.4411    0.0362 
 C                     3.1486    0.8194   -0.4313 
 C                     1.6528    0.7393   -0.2472 
 C                    -1.0946    0.5935    0.0901 
 C                    -2.5728    0.5152    0.2719 
 C                     3.6076   -0.776     1.5005 
 C                     3.5239   -1.6299   -0.8505 
 C                     0.869     0.2281   -1.2695 
 C                     1.0897    1.1791    0.9405 
 C                    -0.5135    0.1549   -1.0998 
 C                    -0.2929    1.1057    1.1102 
 C                    -3.3736    1.3495   -0.7486 
 C                    -3.1004   -0.9233    0.2332 
 H                     4.9775   -0.2527   -0.0735 
 H                     3.3789    1.0242   -1.4854 
 H                     3.5298    1.6907    0.1182 
 H                    -2.8243    0.8896    1.2739 
 H                     2.5794   -1.1167    1.6574 
 H                     3.7958    0.0879    2.1462 
 H                     4.2658   -1.5849    1.8375 
 H                     4.1778   -2.4814   -0.6301 
 H                     2.4964   -1.9688   -0.6863 
 H                     3.6494   -1.3895   -1.9115 
 H                     1.3084   -0.1099   -2.2035 
 H                     1.7024    1.5855    1.7398 
 H                    -1.1208   -0.2449   -1.9075 
 H                    -0.729     1.4534    2.043 
 H                    -3.0012    2.3792   -0.784 
 H                    -3.3032    0.9294   -1.7582 
 H                    -4.4357    1.3895   -0.4835 
 H                    -4.7639   -1.9305    0.3782 
 
                          Input orientation:                          
 ---------------------------------------------------------------------
 Center     Atomic      Atomic             Coordinates (Angstroms)
 Number     Number       Type             X           Y           Z
 ---------------------------------------------------------------------
      1          8           0       -4.445700   -1.003200    0.411300
      2          8           0       -2.400500   -1.911400    0.053100
      3          6           0        3.902400   -0.441100    0.036200
      4          6           0        3.148600    0.819400   -0.431300
      5          6           0        1.652800    0.739300   -0.247200
      6          6           0       -1.094600    0.593500    0.090100
      7          6           0       -2.572800    0.515200    0.271900
      8          6           0        3.607600   -0.776000    1.500500
      9          6           0        3.523900   -1.629900   -0.850500
     10          6           0        0.869000    0.228100   -1.269500
     11          6           0        1.089700    1.179100    0.940500
     12          6           0       -0.513500    0.154900   -1.099800
     13          6           0       -0.292900    1.105700    1.110200
     14          6           0       -3.373600    1.349500   -0.748600
     15          6           0       -3.100400   -0.923300    0.233200
     16          1           0        4.977500   -0.252700   -0.073500
     17          1           0        3.378900    1.024200   -1.485400
     18          1           0        3.529800    1.690700    0.118200
     19          1           0       -2.824300    0.889600    1.273900
     20          1           0        2.579400   -1.116700    1.657400
     21          1           0        3.795800    0.087900    2.146200
     22          1           0        4.265800   -1.584900    1.837500
     23          1           0        4.177800   -2.481400   -0.630100
     24          1           0        2.496400   -1.968800   -0.686300
     25          1           0        3.649400   -1.389500   -1.911500
     26          1           0        1.308400   -0.109900   -2.203500
     27          1           0        1.702400    1.585500    1.739800
     28          1           0       -1.120800   -0.244900   -1.907500
     29          1           0       -0.729000    1.453400    2.043000
     30          1           0       -3.001200    2.379200   -0.784000
     31          1           0       -3.303200    0.929400   -1.758200
     32          1           0       -4.435700    1.389500   -0.483500
     33          1           0       -4.763900   -1.930500    0.378200
 ---------------------------------------------------------------------
                    Distance matrix (angstroms):
                    1          2          3          4          5
     1  O    0.000000
     2  O    2.266270   0.000000
     3  C    8.375406   6.472142   0.000000
     4  C    7.855268   6.203581   1.541308   0.000000
     5  C    6.376647   4.852384   2.556239   1.509214   0.000000
     6  C    3.725922   2.825114   5.103265   4.281079   2.771865
     7  C    2.415104   2.442529   6.549678   5.772473   4.263259
     8  C    8.129798   6.283420   1.530764   2.547123   3.028503
     9  C    8.093171   5.999521   1.530603   2.513096   3.078651
    10  C    5.708522   4.125089   3.369599   2.499758   1.385917
    11  C    5.973537   4.745542   3.369583   2.500058   1.386051
    12  C    4.368846   3.026474   4.598465   3.781459   2.400272
    13  C    4.709742   3.829142   4.598544   3.781813   2.400527
    14  C    2.833719   3.496157   7.534078   6.551395   5.088069
    15  C    1.359388   1.224189   7.022146   6.521393   5.058452
    16  H    9.465462   7.563213   1.096982   2.149952   3.473883
    17  H    8.302541   6.662296   2.176332   1.098229   2.143298
    18  H    8.423278   6.938863   2.165670   1.098375   2.135839
    19  H    2.637368   3.084730   6.967866   6.211938   4.730831
    20  H    7.135662   5.291950   2.198876   2.904331   2.816172
    21  H    8.492508   6.839035   2.177913   2.756350   3.277977
    22  H    8.846618   6.908708   2.164491   3.489448   4.071320
    23  H    8.811035   6.638200   2.163937   3.463243   4.110371
    24  H    7.094354   4.952740   2.198342   2.874795   2.870240
    25  H    8.430615   6.382266   2.181056   2.705741   3.359776
    26  H    6.383168   4.700381   3.443078   2.718571   2.160292
    27  H    6.801868   5.648633   3.442290   2.718838   2.160251
    28  H    4.123932   2.873814   5.389713   4.641086   3.379068
    29  H    4.744596   4.251528   5.391312   4.643264   3.380522
    30  H    3.867293   4.412576   7.502434   6.354322   4.963582
    31  H    3.122015   3.487954   7.551080   6.587753   5.184708
    32  H    2.554561   3.914833   8.552491   7.605876   6.127677
    33  H    0.980934   2.385731   8.800002   8.415753   6.978037
                    6          7          8          9         10
     6  C    0.000000
     7  C    1.491394   0.000000
     8  C    5.096611   6.432262   0.000000
     9  C    5.211408   6.559801   2.502669   0.000000
    10  C    2.416145   3.782106   4.022567   3.267448   0.000000
    11  C    2.416045   3.781758   3.236640   4.125953   2.416032
    12  C    1.394958   2.500419   4.961008   4.421341   1.394798
    13  C    1.394875   2.499876   4.348221   5.088793   2.789833
    14  C    2.543383   1.542322   7.636318   7.514168   4.419110
    15  C    2.518808   1.532691   6.828251   6.749447   4.397723
    16  H    6.132962   7.597105   2.151266   2.147874   4.305968
    17  H    4.762342   6.226549   3.494084   2.732832   2.641966
    18  H    4.752864   6.216683   2.828677   3.459017   3.338378
    19  H    2.116818   1.098832   6.647925   7.152664   4.532872
    20  H    4.345053   5.579236   1.094481   2.728556   3.647012
    21  H    5.329089   6.652417   1.094838   3.464820   4.500313
    22  H    6.044230   7.323112   1.095954   2.788868   4.947592
    23  H    6.145885   7.440687   2.788005   1.095999   4.324162
    24  H    4.479225   5.725835   2.727569   1.094336   2.795518
    25  H    5.517629   6.863737   3.466969   1.095109   3.280155
    26  H    3.395553   4.645651   4.410173   3.008230   1.086127
    27  H    3.395406   4.645170   3.043638   4.512905   3.404846
    28  H    2.166566   2.726874   5.852717   4.960717   2.142447
    29  H    2.164927   2.723346   4.906183   5.997186   3.876547
    30  H    2.754614   2.184708   7.671406   7.658605   4.454367
    31  H    2.899475   2.196896   7.828580   7.347328   4.258862
    32  H    3.482181   2.192128   8.562729   8.520956   5.486938
    33  H    4.462885   3.285372   8.524930   8.383776   6.253322
                   11         12         13         14         15
    11  C    0.000000
    12  C    2.789634   0.000000
    13  C    1.394908   2.415944   0.000000
    14  C    4.775264   3.119388   3.606285   0.000000
    15  C    4.741023   3.103459   3.573238   2.490821   0.000000
    16  H    4.265353   5.600938   5.569875   8.530163   8.111488
    17  H    3.339075   4.006888   4.497321   6.800364   6.980521
    18  H    2.625262   4.493382   3.992408   6.965967   7.127817
    19  H    3.938827   3.393233   2.545876   2.145634   2.108529
    20  H    2.829108   4.334184   3.672683   6.878167   5.858829
    21  H    3.157120   5.395468   4.338972   7.834015   7.227701
    22  H    4.304871   5.873359   5.343224   8.582485   7.567853
    23  H    5.040080   5.401758   5.990249   8.468381   7.493007
    24  H    3.812421   3.706829   4.523291   6.743285   5.767384
    25  H    4.613423   4.513731   5.558635   7.627384   7.097667
    26  H    3.405009   2.146530   3.875881   5.115438   5.102611
    27  H    1.086022   3.875585   2.146585   5.658057   5.624127
    28  H    3.876234   1.086753   3.408233   2.993371   2.993600
    29  H    2.144392   3.407306   1.086828   3.846782   3.814134
    30  H    4.598870   3.351998   3.541848   1.095544   3.457028
    31  H    5.161676   2.969136   4.161815   1.095779   2.727508
    32  H    5.709824   4.157850   4.447833   1.095415   2.765091
    33  H    6.652099   4.959766   5.453822   3.736444   1.950054
                   16         17         18         19         20
    16  H    0.000000
    17  H    2.485851   0.000000
    18  H    2.430923   1.743137   0.000000
    19  H    7.999276   6.790548   6.507841   0.000000
    20  H    3.081135   3.885852   3.339744   5.776875   0.000000
    21  H    2.537615   3.773458   2.598559   6.725277   1.780341
    22  H    2.435815   4.316904   3.771902   7.530625   1.759430
    23  H    2.432371   3.695810   4.287922   8.001141   3.106436
    24  H    3.078373   3.221089   3.886782   6.350014   2.495174
    25  H    2.536613   2.465903   3.690748   7.566364   3.735822
    26  H    4.244948   2.467554   3.683350   5.492770   4.187557
    27  H    4.170529   3.677992   2.445413   4.603515   2.842148
    28  H    6.368114   4.694261   5.429373   3.782897   5.211528
    29  H    6.320957   5.432188   4.679588   2.302101   4.207091
    30  H    8.431569   6.560005   6.628873   2.546597   7.023165
    31  H    8.532618   6.688338   7.126734   3.069945   7.103368
    32  H    9.564165   7.887029   7.993870   2.436178   7.750879
    33  H    9.895146   8.860499   9.053516   3.537978   7.498178
                   21         22         23         24         25
    21  H    0.000000
    22  H    1.764782   0.000000
    23  H    3.801982   2.626881   0.000000
    24  H    3.733833   3.106078   1.758699   0.000000
    25  H    4.320772   3.804357   1.764494   1.779357   0.000000
    26  H    5.014596   5.220299   4.041418   2.677452   2.683826
    27  H    2.605819   4.078235   5.318243   4.376008   5.096413
    28  H    6.380924   6.695975   5.891421   4.188949   4.905602
    29  H    4.727479   5.849917   6.834091   5.437254   6.549087
    30  H    7.748247   8.683066   8.671053   7.009868   7.726890
    31  H    8.145444   8.748744   8.298887   6.571445   7.330719
    32  H    8.738826   9.484208   9.444456   7.705408   8.667806
    33  H    8.970408   9.153386   9.015218   7.338023   8.736076
                   26         27         28         29         30
    26  H    0.000000
    27  H    4.310363   0.000000
    28  H    2.450888   4.962219   0.000000
    29  H    4.962627   2.453790   4.317891   0.000000
    30  H    5.175254   5.396608   3.418195   3.743251   0.000000
    31  H    4.748188   6.141865   2.482769   4.620628   1.772622
    32  H    6.180719   6.531290   3.960758   4.486303   1.768501
    33  H    6.844895   7.485269   4.619291   5.522930   4.799097
                   31         32         33
    31  H    0.000000
    32  H    1.766100   0.000000
    33  H    3.857056   3.445670   0.000000
 Stoichiometry    C13H18O2
 Framework group  C1[X(C13H18O2)]
 Deg. of freedom    93
 Full point group                 C1      NOp   1
 Largest Abelian subgroup         C1      NOp   1
 Largest concise Abelian subgroup C1      NOp   1
                         Standard orientation:                         
 ---------------------------------------------------------------------
 Center     Atomic      Atomic             Coordinates (Angstroms)
 Number     Number       Type             X           Y           Z
 ---------------------------------------------------------------------
      1          8           0        4.446257    1.004235    0.472515
      2          8           0        2.390657    1.894151    0.128229
      3          6           0       -3.890036    0.335498    0.018170
      4          6           0       -3.114854   -0.898615   -0.483514
      5          6           0       -1.621680   -0.803117   -0.285931
      6          6           0        1.120921   -0.629006    0.076092
      7          6           0        2.596538   -0.535484    0.271189
      8          6           0       -3.610259    0.627782    1.494495
      9          6           0       -3.522651    1.557193   -0.827546
     10          6           0       -0.838302   -0.248520   -1.285684
     11          6           0       -1.060511   -1.272435    0.891339
     12          6           0        0.541786   -0.161073   -1.103549
     13          6           0        0.319674   -1.184787    1.073482
     14          6           0        3.416375   -1.325384   -0.769332
     15          6           0        3.103520    0.910889    0.282046
     16          1           0       -4.961512    0.135390   -0.105384
     17          1           0       -3.334862   -1.073017   -1.545253
     18          1           0       -3.487200   -1.792307    0.035235
     19          1           0        2.846487   -0.937970    1.262633
     20          1           0       -2.588209    0.977927    1.669710
     21          1           0       -3.790403   -0.258828    2.111052
     22          1           0       -4.282414    1.416086    1.852124
     23          1           0       -4.190316    2.391844   -0.585071
     24          1           0       -2.501324    1.905296   -0.645097
     25          1           0       -3.637309    1.348926   -1.896537
     26          1           0       -1.276070    0.112747   -2.211706
     27          1           0       -1.672785   -1.712760    1.672798
     28          1           0        1.148814    0.272846   -1.893652
     29          1           0        0.754291   -1.555757    1.997973
     30          1           0        3.059170   -2.358635   -0.840133
     31          1           0        3.346894   -0.874404   -1.765586
     32          1           0        4.477082   -1.358669   -0.497803
     33          1           0        4.751225    1.936557    0.471204
 ---------------------------------------------------------------------
 Rotational constants (GHZ):           1.3038705           0.2852066           0.2712529
 Standard basis: def2TZVP (5D, 7F)
 There are   648 symmetry adapted cartesian basis functions of A   symmetry.
 There are   573 symmetry adapted basis functions of A   symmetry.
   573 basis functions,   909 primitive gaussians,   648 cartesian basis functions
    56 alpha electrons       56 beta electrons
       nuclear repulsion energy       985.5069704769 Hartrees.
 NAtoms=   33 NActive=   33 NUniq=   33 SFac= 1.00D+00 NAtFMM=   60 NAOKFM=F Big=F
 Integral buffers will be    131072 words long.
 Raffenetti 2 integral format.
 Two-electron integral symmetry is turned on.
 Nuclear repulsion after empirical dispersion term =      985.4589436269 Hartrees.
 One-electron integrals computed using PRISM.
   1 Symmetry operations used in ECPInt.
 ECPInt:  NShTT=   28203 NPrTT=   83820 LenC2=   25425 LenP2D=   56184.
 LDataN:  DoStor=T MaxTD1= 6 Len=  172
 NBasis=   573 RedAO= T EigKep=  6.39D-06  NBF=   573
 NBsUse=   573 1.00D-06 EigRej= -1.00D+00 NBFU=   573
 ExpMin= 9.52D-02 ExpMax= 2.70D+04 ExpMxC= 9.22D+02 IAcc=3 IRadAn=         5 AccDes= 0.00D+00
 Harris functional with IExCor= 1009 and IRadAn=       5 diagonalized for initial guess.
 HarFok:  IExCor= 1009 AccDes= 0.00D+00 IRadAn=         5 IDoV= 1 UseB2=F ITyADJ=14
 ICtDFT=  3500011 ScaDFX=  1.000000  1.000000  1.000000  1.000000
 FoFCou: FMM=F IPFlag=           0 FMFlag=      100000 FMFlg1=           0
         NFxFlg=           0 DoJE=T BraDBF=F KetDBF=T FulRan=T
         wScrn=  0.000000 ICntrl=       500 IOpCl=  0 I1Cent=   200000004 NGrid=           0
         NMat0=    1 NMatS0=      1 NMatT0=    0 NMatD0=    1 NMtDS0=    0 NMtDT0=    0
 Petite list used in FoFCou.
 Requested convergence on RMS density matrix=1.00D-08 within 128 cycles.
 Requested convergence on MAX density matrix=1.00D-06.
 Requested convergence on             energy=1.00D-06.
 No special actions if energy rises.
 Integral accuracy reduced to 1.0D-05 until final iterations.
 Initial convergence to 1.0D-05 achieved.  Increase integral accuracy.
 SCF Done:  E(RTPSS-TPSS) =  -657.090997955     A.U. after   17 cycles
            NFock= 17  Conv=0.36D-08     -V/T= 2.0045

 **********************************************************************

            Population analysis using the SCF Density.

 **********************************************************************

 Orbital symmetries:
       Occupied  (A) (A) (A) (A) (A) (A) (A) (A) (A) (A) (A) (A)
                 (A) (A) (A) (A) (A) (A) (A) (A) (A) (A) (A) (A)
                 (A) (A) (A) (A) (A) (A) (A) (A) (A) (A) (A) (A)
                 (A) (A) (A) (A) (A) (A) (A) (A) (A) (A) (A) (A)
                 (A) (A) (A) (A) (A) (A) (A) (A)
       Virtual   (A) (A) (A) (A) (A) (A) (A) (A) (A) (A) (A) (A)
                 (A) (A) (A) (A) (A) (A) (A) (A) (A) (A) (A) (A)
                 (A) (A) (A) (A) (A) (A) (A) (A) (A) (A) (A) (A)
                 (A) (A) (A) (A) (A) (A) (A) (A) (A) (A) (A) (A)
                 (A) (A) (A) (A) (A) (A) (A) (A) (A) (A) (A) (A)
                 (A) (A) (A) (A) (A) (A) (A) (A) (A) (A) (A) (A)
                 (A) (A) (A) (A) (A) (A) (A) (A) (A) (A) (A) (A)
                 (A) (A) (A) (A) (A) (A) (A) (A) (A) (A) (A) (A)
                 (A) (A) (A) (A) (A) (A) (A) (A) (A) (A) (A) (A)
                 (A) (A) (A) (A) (A) (A) (A) (A) (A) (A) (A) (A)
                 (A) (A) (A) (A) (A) (A) (A) (A) (A) (A) (A) (A)
                 (A) (A) (A) (A) (A) (A) (A) (A) (A) (A) (A) (A)
                 (A) (A) (A) (A) (A) (A) (A) (A) (A) (A) (A) (A)
                 (A) (A) (A) (A) (A) (A) (A) (A) (A) (A) (A) (A)
                 (A) (A) (A) (A) (A) (A) (A) (A) (A) (A) (A) (A)
                 (A) (A) (A) (A) (A) (A) (A) (A) (A) (A) (A) (A)
                 (A) (A) (A) (A) (A) (A) (A) (A) (A) (A) (A) (A)
                 (A) (A) (A) (A) (A) (A) (A) (A) (A) (A) (A) (A)
                 (A) (A) (A) (A) (A) (A) (A) (A) (A) (A) (A) (A)
                 (A) (A) (A) (A) (A) (A) (A) (A) (A) (A) (A) (A)
                 (A) (A) (A) (A) (A) (A) (A) (A) (A) (A) (A) (A)
                 (A) (A) (A) (A) (A) (A) (A) (A) (A) (A) (A) (A)
                 (A) (A) (A) (A) (A) (A) (A) (A) (A) (A) (A) (A)
                 (A) (A) (A) (A) (A) (A) (A) (A) (A) (A) (A) (A)
                 (A) (A) (A) (A) (A) (A) (A) (A) (A) (A) (A) (A)
                 (A) (A) (A) (A) (A) (A) (A) (A) (A) (A) (A) (A)
                 (A) (A) (A) (A) (A) (A) (A) (A) (A) (A) (A) (A)
                 (A) (A) (A) (A) (A) (A) (A) (A) (A) (A) (A) (A)
                 (A) (A) (A) (A) (A) (A) (A) (A) (A) (A) (A) (A)
                 (A) (A) (A) (A) (A) (A) (A) (A) (A) (A) (A) (A)
                 (A) (A) (A) (A) (A) (A) (A) (A) (A) (A) (A) (A)
                 (A) (A) (A) (A) (A) (A) (A) (A) (A) (A) (A) (A)
                 (A) (A) (A) (A) (A) (A) (A) (A) (A) (A) (A) (A)
                 (A) (A) (A) (A) (A) (A) (A) (A) (A) (A) (A) (A)
                 (A) (A) (A) (A) (A) (A) (A) (A) (A) (A) (A) (A)
                 (A) (A) (A) (A) (A) (A) (A) (A) (A) (A) (A) (A)
                 (A) (A) (A) (A) (A) (A) (A) (A) (A) (A) (A) (A)
                 (A) (A) (A) (A) (A) (A) (A) (A) (A) (A) (A) (A)
                 (A) (A) (A) (A) (A) (A) (A) (A) (A) (A) (A) (A)
                 (A) (A) (A) (A) (A) (A) (A) (A) (A) (A) (A) (A)
                 (A) (A) (A) (A) (A) (A) (A) (A) (A) (A) (A) (A)
                 (A) (A) (A) (A) (A) (A) (A) (A) (A) (A) (A) (A)
                 (A) (A) (A) (A) (A) (A) (A) (A) (A) (A) (A) (A)
                 (A)
 The electronic state is 1-A.
 Alpha  occ. eigenvalues --  -18.93384 -18.87010 -10.11228 -10.01407  -9.99028
 Alpha  occ. eigenvalues --   -9.98950  -9.98657  -9.98529  -9.98467  -9.98305
 Alpha  occ. eigenvalues --   -9.98119  -9.98057  -9.97974  -9.96869  -9.96731
 Alpha  occ. eigenvalues --   -1.03077  -0.94267  -0.80332  -0.76201  -0.73650
 Alpha  occ. eigenvalues --   -0.68889  -0.68409  -0.62812  -0.62559  -0.61410
 Alpha  occ. eigenvalues --   -0.56736  -0.55863  -0.52419  -0.50649  -0.45715
 Alpha  occ. eigenvalues --   -0.45125  -0.43130  -0.42573  -0.41448  -0.40992
 Alpha  occ. eigenvalues --   -0.40622  -0.38704  -0.38298  -0.38027  -0.36936
 Alpha  occ. eigenvalues --   -0.36430  -0.34824  -0.33878  -0.33726  -0.33131
 Alpha  occ. eigenvalues --   -0.32098  -0.31730  -0.30817  -0.29934  -0.28997
 Alpha  occ. eigenvalues --   -0.28453  -0.28285  -0.27500  -0.23420  -0.22319
 Alpha  occ. eigenvalues --   -0.21239
 Alpha virt. eigenvalues --   -0.03566  -0.03160  -0.02947   0.01437   0.02549
 Alpha virt. eigenvalues --    0.03923   0.04848   0.05833   0.06337   0.06640
 Alpha virt. eigenvalues --    0.07870   0.08753   0.09238   0.09546   0.10257
 Alpha virt. eigenvalues --    0.10325   0.11012   0.11451   0.12352   0.12922
 Alpha virt. eigenvalues --    0.13497   0.14507   0.15032   0.15477   0.15777
 Alpha virt. eigenvalues --    0.16251   0.17007   0.17918   0.18719   0.19530
 Alpha virt. eigenvalues --    0.19706   0.20691   0.20826   0.22344   0.22540
 Alpha virt. eigenvalues --    0.23105   0.23738   0.24056   0.24341   0.24889
 Alpha virt. eigenvalues --    0.25551   0.26726   0.27040   0.27431   0.28716
 Alpha virt. eigenvalues --    0.29062   0.29202   0.29961   0.31010   0.31374
 Alpha virt. eigenvalues --    0.31770   0.32681   0.34098   0.34670   0.34750
 Alpha virt. eigenvalues --    0.35127   0.36063   0.36436   0.37244   0.37770
 Alpha virt. eigenvalues --    0.38553   0.39378   0.39611   0.40046   0.40342
 Alpha virt. eigenvalues --    0.41390   0.41733   0.41982   0.42419   0.42582
 Alpha virt. eigenvalues --    0.43244   0.43538   0.43575   0.44259   0.44810
 Alpha virt. eigenvalues --    0.44983   0.45508   0.45553   0.46273   0.46798
 Alpha virt. eigenvalues --    0.47349   0.47767   0.48123   0.48775   0.49176
 Alpha virt. eigenvalues --    0.50284   0.50815   0.51592   0.51977   0.52941
 Alpha virt. eigenvalues --    0.53634   0.54534   0.56118   0.56405   0.57515
 Alpha virt. eigenvalues --    0.57625   0.57926   0.59616   0.60950   0.62393
 Alpha virt. eigenvalues --    0.63988   0.64494   0.65345   0.66055   0.67130
 Alpha virt. eigenvalues --    0.67946   0.69314   0.70205   0.71197   0.72071
 Alpha virt. eigenvalues --    0.72887   0.73881   0.74858   0.76371   0.77406
 Alpha virt. eigenvalues --    0.77800   0.79678   0.79737   0.81834   0.82234
 Alpha virt. eigenvalues --    0.83203   0.83687   0.84263   0.84862   0.85231
 Alpha virt. eigenvalues --    0.86685   0.87439   0.89659   0.90616   0.91320
 Alpha virt. eigenvalues --    0.92175   0.93479   0.94717   0.95578   0.95842
 Alpha virt. eigenvalues --    0.96758   0.98240   0.99143   1.00109   1.00774
 Alpha virt. eigenvalues --    1.03329   1.04742   1.05220   1.05494   1.06368
 Alpha virt. eigenvalues --    1.08244   1.08434   1.09584   1.10283   1.11275
 Alpha virt. eigenvalues --    1.11588   1.14001   1.15072   1.15632   1.17687
 Alpha virt. eigenvalues --    1.18041   1.19640   1.20826   1.21252   1.22425
 Alpha virt. eigenvalues --    1.24197   1.24687   1.25928   1.27176   1.27748
 Alpha virt. eigenvalues --    1.28784   1.30094   1.30598   1.32103   1.33408
 Alpha virt. eigenvalues --    1.34799   1.35798   1.37917   1.39223   1.39317
 Alpha virt. eigenvalues --    1.41334   1.42815   1.44867   1.46105   1.47129
 Alpha virt. eigenvalues --    1.47990   1.49572   1.49997   1.50567   1.51771
 Alpha virt. eigenvalues --    1.52364   1.52912   1.53686   1.53977   1.54873
 Alpha virt. eigenvalues --    1.55644   1.56206   1.57153   1.57747   1.58482
 Alpha virt. eigenvalues --    1.59476   1.60597   1.61238   1.61740   1.63048
 Alpha virt. eigenvalues --    1.63891   1.64257   1.65782   1.66192   1.66817
 Alpha virt. eigenvalues --    1.69200   1.70702   1.71195   1.72410   1.72658
 Alpha virt. eigenvalues --    1.73662   1.76213   1.76847   1.77018   1.78610
 Alpha virt. eigenvalues --    1.79192   1.81029   1.82406   1.83307   1.85207
 Alpha virt. eigenvalues --    1.86464   1.86705   1.87566   1.88189   1.89383
 Alpha virt. eigenvalues --    1.90794   1.91620   1.92411   1.93885   1.95836
 Alpha virt. eigenvalues --    1.96493   1.98611   2.00878   2.01249   2.02407
 Alpha virt. eigenvalues --    2.06107   2.07227   2.09148   2.09387   2.10461
 Alpha virt. eigenvalues --    2.11174   2.12354   2.13821   2.14357   2.15353
 Alpha virt. eigenvalues --    2.15823   2.17314   2.18189   2.19301   2.20538
 Alpha virt. eigenvalues --    2.20898   2.21750   2.23308   2.26071   2.26865
 Alpha virt. eigenvalues --    2.27255   2.28730   2.30998   2.31464   2.31966
 Alpha virt. eigenvalues --    2.33583   2.33980   2.35959   2.36867   2.37722
 Alpha virt. eigenvalues --    2.38747   2.40351   2.40931   2.41936   2.43284
 Alpha virt. eigenvalues --    2.44420   2.45392   2.45926   2.47767   2.50000
 Alpha virt. eigenvalues --    2.50433   2.51490   2.53229   2.53717   2.54560
 Alpha virt. eigenvalues --    2.55053   2.55588   2.56169   2.57542   2.58289
 Alpha virt. eigenvalues --    2.59169   2.60061   2.61555   2.62199   2.62933
 Alpha virt. eigenvalues --    2.64490   2.65006   2.65602   2.66051   2.66715
 Alpha virt. eigenvalues --    2.68609   2.69748   2.70566   2.70818   2.71077
 Alpha virt. eigenvalues --    2.71596   2.72585   2.74469   2.76013   2.76551
 Alpha virt. eigenvalues --    2.77202   2.77803   2.78550   2.79457   2.80680
 Alpha virt. eigenvalues --    2.81597   2.81761   2.84033   2.84890   2.85170
 Alpha virt. eigenvalues --    2.87391   2.88889   2.89905   2.90373   2.92443
 Alpha virt. eigenvalues --    2.92803   2.93912   2.95493   2.96877   2.97166
 Alpha virt. eigenvalues --    2.99337   3.00327   3.01043   3.02023   3.03253
 Alpha virt. eigenvalues --    3.04144   3.04887   3.07522   3.08388   3.08704
 Alpha virt. eigenvalues --    3.09833   3.10147   3.11533   3.12829   3.13105
 Alpha virt. eigenvalues --    3.13750   3.14155   3.14959   3.16743   3.16931
 Alpha virt. eigenvalues --    3.17611   3.18861   3.19172   3.21077   3.21539
 Alpha virt. eigenvalues --    3.22534   3.24412   3.24830   3.25980   3.27299
 Alpha virt. eigenvalues --    3.27941   3.28158   3.29377   3.30434   3.30764
 Alpha virt. eigenvalues --    3.31666   3.32537   3.33106   3.34325   3.35014
 Alpha virt. eigenvalues --    3.36527   3.37369   3.37976   3.38772   3.39641
 Alpha virt. eigenvalues --    3.40276   3.40774   3.42074   3.42623   3.43114
 Alpha virt. eigenvalues --    3.43607   3.45222   3.46923   3.47618   3.48996
 Alpha virt. eigenvalues --    3.49693   3.50441   3.51405   3.52231   3.54253
 Alpha virt. eigenvalues --    3.54749   3.55628   3.56761   3.58178   3.59841
 Alpha virt. eigenvalues --    3.60037   3.62111   3.63406   3.64614   3.65131
 Alpha virt. eigenvalues --    3.66439   3.68600   3.69647   3.70926   3.72464
 Alpha virt. eigenvalues --    3.74403   3.75026   3.77592   3.78401   3.80773
 Alpha virt. eigenvalues --    3.81450   3.83094   3.84628   3.87523   3.89307
 Alpha virt. eigenvalues --    3.90415   3.92642   3.94077   3.95882   3.96893
 Alpha virt. eigenvalues --    4.00171   4.01908   4.02394   4.04282   4.04680
 Alpha virt. eigenvalues --    4.06358   4.07197   4.08599   4.08739   4.12860
 Alpha virt. eigenvalues --    4.14060   4.14856   4.15790   4.19901   4.22142
 Alpha virt. eigenvalues --    4.23614   4.23914   4.24294   4.26408   4.27068
 Alpha virt. eigenvalues --    4.29492   4.31700   4.32514   4.34879   4.37089
 Alpha virt. eigenvalues --    4.41055   4.42111   4.42926   4.43685   4.45193
 Alpha virt. eigenvalues --    4.48439   4.49460   4.50165   4.54934   4.56049
 Alpha virt. eigenvalues --    4.58336   4.61862   4.62563   4.64377   4.68284
 Alpha virt. eigenvalues --    4.69414   4.70221   4.72140   4.74606   4.77459
 Alpha virt. eigenvalues --    4.81478   4.84907   4.87059   4.90986   4.91111
 Alpha virt. eigenvalues --    4.93096   4.96120   4.99073   5.02844   5.03855
 Alpha virt. eigenvalues --    5.06708   5.14637   5.18437   5.18993   5.20293
 Alpha virt. eigenvalues --    5.28431   5.33678   5.36148   5.38985   5.46731
 Alpha virt. eigenvalues --    5.47995   5.48696   5.57777   5.61905   5.69788
 Alpha virt. eigenvalues --    5.77628   5.85608   5.87627   6.12714   6.18417
 Alpha virt. eigenvalues --    6.29944   6.31695   6.41538   6.44875   6.60628
 Alpha virt. eigenvalues --    6.67379   6.74362   6.81967   6.88910   7.04366
 Alpha virt. eigenvalues --    7.12490   7.30702  22.12000  22.31953  22.34576
 Alpha virt. eigenvalues --   22.37866  22.53084  22.57496  22.59649  22.69830
 Alpha virt. eigenvalues --   22.72758  22.76984  22.89926  23.14036  23.31288
 Alpha virt. eigenvalues --   43.74503  43.81997
          Condensed to atoms (all electrons):
               1          2          3          4          5          6
     1  O    7.899436  -0.094815   0.000000  -0.000000   0.000002   0.015902
     2  O   -0.094815   7.806622   0.000008   0.000007   0.000050   0.001807
     3  C    0.000000   0.000008   4.796189   0.372261  -0.009752  -0.002611
     4  C   -0.000000   0.000007   0.372261   5.069281   0.317964  -0.002254
     5  C    0.000002   0.000050  -0.009752   0.317964   5.044174  -0.192998
     6  C    0.015902   0.001807  -0.002611  -0.002254  -0.192998   5.169605
     7  C   -0.142067  -0.149314   0.000034  -0.000330  -0.000375   0.264120
     8  C   -0.000000  -0.000010   0.368907  -0.043580  -0.006778  -0.000223
     9  C   -0.000000  -0.000040   0.366528  -0.048370  -0.005871   0.000106
    10  C   -0.000059  -0.001408  -0.015128  -0.092474   0.303422   0.141341
    11  C   -0.000040  -0.000997  -0.016653  -0.090233   0.326100   0.136465
    12  C   -0.000739   0.015177   0.003872   0.020052   0.128657   0.252908
    13  C   -0.000539   0.011779   0.004457   0.018929   0.115508   0.227150
    14  C   -0.002710   0.004264  -0.000000   0.000053  -0.000073  -0.039354
    15  C    0.399082   0.683102  -0.000000   0.000006  -0.001017  -0.002319
    16  H   -0.000000   0.000000   0.377269  -0.043512   0.014912   0.000058
    17  H   -0.000000  -0.000000  -0.035640   0.388184  -0.049632   0.000509
    18  H   -0.000000   0.000000  -0.032925   0.371624  -0.048406   0.000757
    19  H    0.008521   0.003417  -0.000001   0.000007   0.000748  -0.030025
    20  H    0.000000   0.000027  -0.017682  -0.013157   0.009728  -0.001004
    21  H    0.000000   0.000000  -0.047341   0.002308  -0.007681   0.000224
    22  H    0.000000   0.000000  -0.037758   0.011745   0.000652  -0.000022
    23  H    0.000000   0.000000  -0.038284   0.011997   0.000561  -0.000021
    24  H    0.000000   0.000113  -0.021548  -0.012113   0.009530  -0.000849
    25  H    0.000000   0.000000  -0.048068   0.004335  -0.007081   0.000050
    26  H    0.000000  -0.000010  -0.004898  -0.011277  -0.080299   0.018476
    27  H   -0.000000  -0.000008  -0.004864  -0.011050  -0.085560   0.021916
    28  H   -0.000513   0.005084   0.000100  -0.000800   0.019197  -0.102756
    29  H   -0.000018   0.000324   0.000056  -0.000596   0.020919  -0.094327
    30  H    0.000308  -0.000561  -0.000000  -0.000006  -0.000092   0.002950
    31  H    0.001589   0.000811  -0.000000  -0.000001   0.000011  -0.005372
    32  H    0.007039   0.000211   0.000000  -0.000001   0.000012   0.008195
    33  H    0.268542   0.006585  -0.000000  -0.000000  -0.000002  -0.001797
               7          8          9         10         11         12
     1  O   -0.142067  -0.000000  -0.000000  -0.000059  -0.000040  -0.000739
     2  O   -0.149314  -0.000010  -0.000040  -0.001408  -0.000997   0.015177
     3  C    0.000034   0.368907   0.366528  -0.015128  -0.016653   0.003872
     4  C   -0.000330  -0.043580  -0.048370  -0.092474  -0.090233   0.020052
     5  C   -0.000375  -0.006778  -0.005871   0.303422   0.326100   0.128657
     6  C    0.264120  -0.000223   0.000106   0.141341   0.136465   0.252908
     7  C    5.470310  -0.000009   0.000019   0.003760   0.016835  -0.088263
     8  C   -0.000009   4.952287  -0.055610   0.000758  -0.000691   0.000636
     9  C    0.000019  -0.055610   4.969501  -0.000158   0.002950   0.000770
    10  C    0.003760   0.000758  -0.000158   5.251443   0.081991   0.234126
    11  C    0.016835  -0.000691   0.002950   0.081991   5.208676  -0.138895
    12  C   -0.088263   0.000636   0.000770   0.234126  -0.138895   5.300349
    13  C   -0.105598   0.002222   0.000003  -0.128019   0.262327   0.036109
    14  C    0.310170   0.000001  -0.000001   0.003502  -0.000588   0.001064
    15  C    0.198642  -0.000006  -0.000014   0.008409  -0.000498  -0.030605
    16  H   -0.000000  -0.042208  -0.040202   0.000328   0.000203  -0.000074
    17  H    0.000003   0.010217  -0.009921   0.011954   0.004467   0.001252
    18  H    0.000009  -0.007485   0.011296   0.006920   0.014602  -0.002134
    19  H    0.300759   0.000001   0.000000  -0.001855   0.000079   0.018415
    20  H   -0.000008   0.398962  -0.008192  -0.000938  -0.009984   0.000664
    21  H    0.000001   0.398248   0.012093   0.000444   0.003035  -0.000202
    22  H   -0.000000   0.389615  -0.000319  -0.000285   0.000284   0.000003
    23  H   -0.000000   0.000892   0.387540   0.000032  -0.000237   0.000094
    24  H   -0.000043  -0.007704   0.401181  -0.007936  -0.001186   0.004085
    25  H   -0.000001   0.011833   0.398543   0.001945  -0.000247  -0.000002
    26  H   -0.000967   0.000479   0.002827   0.454630   0.016105  -0.072907
    27  H   -0.000646   0.003494   0.000434   0.019303   0.459403  -0.005073
    28  H    0.011027   0.000006  -0.000059  -0.071401  -0.003017   0.457539
    29  H   -0.016236  -0.000035   0.000002  -0.004171  -0.072576   0.019546
    30  H   -0.035331  -0.000000   0.000000   0.000367  -0.000309  -0.005926
    31  H   -0.044703   0.000000  -0.000000  -0.000227  -0.000123   0.002680
    32  H   -0.027589  -0.000000  -0.000000  -0.000120   0.000023   0.000937
    33  H    0.021883  -0.000000   0.000000   0.000008   0.000003  -0.000282
              13         14         15         16         17         18
     1  O   -0.000539  -0.002710   0.399082  -0.000000  -0.000000  -0.000000
     2  O    0.011779   0.004264   0.683102   0.000000  -0.000000   0.000000
     3  C    0.004457  -0.000000  -0.000000   0.377269  -0.035640  -0.032925
     4  C    0.018929   0.000053   0.000006  -0.043512   0.388184   0.371624
     5  C    0.115508  -0.000073  -0.001017   0.014912  -0.049632  -0.048406
     6  C    0.227150  -0.039354  -0.002319   0.000058   0.000509   0.000757
     7  C   -0.105598   0.310170   0.198642  -0.000000   0.000003   0.000009
     8  C    0.002222   0.000001  -0.000006  -0.042208   0.010217  -0.007485
     9  C    0.000003  -0.000001  -0.000014  -0.040202  -0.009921   0.011296
    10  C   -0.128019   0.003502   0.008409   0.000328   0.011954   0.006920
    11  C    0.262327  -0.000588  -0.000498   0.000203   0.004467   0.014602
    12  C    0.036109   0.001064  -0.030605  -0.000074   0.001252  -0.002134
    13  C    5.326108  -0.001405   0.017649  -0.000114  -0.001829   0.000827
    14  C   -0.001405   4.968399  -0.036419  -0.000000  -0.000002  -0.000003
    15  C    0.017649  -0.036419   4.578209   0.000000   0.000001   0.000001
    16  H   -0.000114  -0.000000   0.000000   0.692228  -0.002709  -0.004817
    17  H   -0.001829  -0.000002   0.000001  -0.002709   0.589503  -0.019659
    18  H    0.000827  -0.000003   0.000001  -0.004817  -0.019659   0.600008
    19  H    0.005578  -0.019088  -0.004367  -0.000000   0.000000   0.000000
    20  H    0.004375   0.000001   0.000019   0.008704  -0.000476   0.000263
    21  H   -0.000632  -0.000000   0.000000  -0.002917  -0.000009   0.003187
    22  H    0.000069   0.000000  -0.000000  -0.008533  -0.000437  -0.000098
    23  H    0.000004  -0.000000   0.000000  -0.009031   0.000153  -0.000559
    24  H    0.000609   0.000001   0.000035   0.008855   0.000540  -0.000500
    25  H   -0.000041  -0.000000   0.000000  -0.003241   0.003238   0.000143
    26  H   -0.002612   0.000059   0.000111  -0.000173   0.004530   0.000528
    27  H   -0.078759   0.000022  -0.000004  -0.000166   0.000555   0.005602
    28  H    0.013994  -0.002444  -0.006515  -0.000003  -0.000046   0.000027
    29  H    0.453383   0.000931   0.001035  -0.000004   0.000027  -0.000069
    30  H    0.006849   0.392663   0.007410   0.000000   0.000000   0.000001
    31  H    0.002152   0.397808   0.001305   0.000000   0.000000   0.000000
    32  H   -0.001178   0.390057  -0.003003   0.000000   0.000000   0.000000
    33  H   -0.000005  -0.001304  -0.020562   0.000000   0.000000   0.000000
              19         20         21         22         23         24
     1  O    0.008521   0.000000   0.000000   0.000000   0.000000   0.000000
     2  O    0.003417   0.000027   0.000000   0.000000   0.000000   0.000113
     3  C   -0.000001  -0.017682  -0.047341  -0.037758  -0.038284  -0.021548
     4  C    0.000007  -0.013157   0.002308   0.011745   0.011997  -0.012113
     5  C    0.000748   0.009728  -0.007681   0.000652   0.000561   0.009530
     6  C   -0.030025  -0.001004   0.000224  -0.000022  -0.000021  -0.000849
     7  C    0.300759  -0.000008   0.000001  -0.000000  -0.000000  -0.000043
     8  C    0.000001   0.398962   0.398248   0.389615   0.000892  -0.007704
     9  C    0.000000  -0.008192   0.012093  -0.000319   0.387540   0.401181
    10  C   -0.001855  -0.000938   0.000444  -0.000285   0.000032  -0.007936
    11  C    0.000079  -0.009984   0.003035   0.000284  -0.000237  -0.001186
    12  C    0.018415   0.000664  -0.000202   0.000003   0.000094   0.004085
    13  C    0.005578   0.004375  -0.000632   0.000069   0.000004   0.000609
    14  C   -0.019088   0.000001  -0.000000   0.000000  -0.000000   0.000001
    15  C   -0.004367   0.000019   0.000000  -0.000000   0.000000   0.000035
    16  H   -0.000000   0.008704  -0.002917  -0.008533  -0.009031   0.008855
    17  H    0.000000  -0.000476  -0.000009  -0.000437   0.000153   0.000540
    18  H    0.000000   0.000263   0.003187  -0.000098  -0.000559  -0.000500
    19  H    0.637291  -0.000003   0.000000  -0.000000   0.000000  -0.000000
    20  H   -0.000003   0.535742  -0.023225  -0.022142  -0.000817   0.006602
    21  H    0.000000  -0.023225   0.581257  -0.022772  -0.000268  -0.000066
    22  H   -0.000000  -0.022142  -0.022772   0.577363   0.004047  -0.000726
    23  H    0.000000  -0.000817  -0.000268   0.004047   0.580495  -0.021107
    24  H   -0.000000   0.006602  -0.000066  -0.000726  -0.021107   0.531236
    25  H   -0.000000  -0.000054  -0.000650  -0.000205  -0.022370  -0.023829
    26  H    0.000022  -0.000144  -0.000005  -0.000008   0.000117  -0.002821
    27  H   -0.000086  -0.002598   0.001962   0.000075  -0.000009  -0.000124
    28  H    0.001084  -0.000002  -0.000000   0.000000   0.000002   0.000016
    29  H    0.010687   0.000020  -0.000041   0.000002   0.000000   0.000002
    30  H   -0.007989  -0.000000   0.000000  -0.000000   0.000000  -0.000000
    31  H    0.007882  -0.000000   0.000000   0.000000  -0.000000  -0.000000
    32  H   -0.005762  -0.000000   0.000000   0.000000  -0.000000  -0.000000
    33  H   -0.001184  -0.000000   0.000000  -0.000000   0.000000  -0.000000
              25         26         27         28         29         30
     1  O    0.000000   0.000000  -0.000000  -0.000513  -0.000018   0.000308
     2  O    0.000000  -0.000010  -0.000008   0.005084   0.000324  -0.000561
     3  C   -0.048068  -0.004898  -0.004864   0.000100   0.000056  -0.000000
     4  C    0.004335  -0.011277  -0.011050  -0.000800  -0.000596  -0.000006
     5  C   -0.007081  -0.080299  -0.085560   0.019197   0.020919  -0.000092
     6  C    0.000050   0.018476   0.021916  -0.102756  -0.094327   0.002950
     7  C   -0.000001  -0.000967  -0.000646   0.011027  -0.016236  -0.035331
     8  C    0.011833   0.000479   0.003494   0.000006  -0.000035  -0.000000
     9  C    0.398543   0.002827   0.000434  -0.000059   0.000002   0.000000
    10  C    0.001945   0.454630   0.019303  -0.071401  -0.004171   0.000367
    11  C   -0.000247   0.016105   0.459403  -0.003017  -0.072576  -0.000309
    12  C   -0.000002  -0.072907  -0.005073   0.457539   0.019546  -0.005926
    13  C   -0.000041  -0.002612  -0.078759   0.013994   0.453383   0.006849
    14  C   -0.000000   0.000059   0.000022  -0.002444   0.000931   0.392663
    15  C    0.000000   0.000111  -0.000004  -0.006515   0.001035   0.007410
    16  H   -0.003241  -0.000173  -0.000166  -0.000003  -0.000004   0.000000
    17  H    0.003238   0.004530   0.000555  -0.000046   0.000027   0.000000
    18  H    0.000143   0.000528   0.005602   0.000027  -0.000069   0.000001
    19  H   -0.000000   0.000022  -0.000086   0.001084   0.010687  -0.007989
    20  H   -0.000054  -0.000144  -0.002598  -0.000002   0.000020  -0.000000
    21  H   -0.000650  -0.000005   0.001962  -0.000000  -0.000041   0.000000
    22  H   -0.000205  -0.000008   0.000075   0.000000   0.000002  -0.000000
    23  H   -0.022370   0.000117  -0.000009   0.000002   0.000000   0.000000
    24  H   -0.023829  -0.002821  -0.000124   0.000016   0.000002  -0.000000
    25  H    0.578997   0.001145  -0.000012  -0.000011   0.000000  -0.000000
    26  H    0.001145   0.594525  -0.000189  -0.010481   0.000108   0.000016
    27  H   -0.000012  -0.000189   0.602906   0.000088  -0.010976   0.000005
    28  H   -0.000011  -0.010481   0.000088   0.603672  -0.000252  -0.000223
    29  H    0.000000   0.000108  -0.010976  -0.000252   0.609150   0.000236
    30  H   -0.000000   0.000016   0.000005  -0.000223   0.000236   0.558450
    31  H    0.000000   0.000017  -0.000001   0.004052   0.000054  -0.020309
    32  H    0.000000  -0.000003  -0.000001  -0.000125  -0.000141  -0.021516
    33  H    0.000000   0.000000   0.000000   0.000006  -0.000003   0.000116
              31         32         33
     1  O    0.001589   0.007039   0.268542
     2  O    0.000811   0.000211   0.006585
     3  C   -0.000000   0.000000  -0.000000
     4  C   -0.000001  -0.000001  -0.000000
     5  C    0.000011   0.000012  -0.000002
     6  C   -0.005372   0.008195  -0.001797
     7  C   -0.044703  -0.027589   0.021883
     8  C    0.000000  -0.000000  -0.000000
     9  C   -0.000000  -0.000000   0.000000
    10  C   -0.000227  -0.000120   0.000008
    11  C   -0.000123   0.000023   0.000003
    12  C    0.002680   0.000937  -0.000282
    13  C    0.002152  -0.001178  -0.000005
    14  C    0.397808   0.390057  -0.001304
    15  C    0.001305  -0.003003  -0.020562
    16  H    0.000000   0.000000   0.000000
    17  H    0.000000   0.000000   0.000000
    18  H    0.000000   0.000000   0.000000
    19  H    0.007882  -0.005762  -0.001184
    20  H   -0.000000  -0.000000  -0.000000
    21  H    0.000000   0.000000   0.000000
    22  H    0.000000   0.000000  -0.000000
    23  H   -0.000000  -0.000000   0.000000
    24  H   -0.000000  -0.000000  -0.000000
    25  H    0.000000   0.000000   0.000000
    26  H    0.000017  -0.000003   0.000000
    27  H   -0.000001  -0.000001   0.000000
    28  H    0.004052  -0.000125   0.000006
    29  H    0.000054  -0.000141  -0.000003
    30  H   -0.020309  -0.021516   0.000116
    31  H    0.559708  -0.021187  -0.000258
    32  H   -0.021187   0.538047  -0.000144
    33  H   -0.000258  -0.000144   0.408420
 Mulliken charges:
               1
     1  O   -0.358921
     2  O   -0.292229
     3  C    0.043471
     4  C   -0.218999
     5  C    0.183472
     6  C    0.213390
     7  C    0.013908
     8  C   -0.374221
     9  C   -0.385037
    10  C   -0.200504
    11  C   -0.197273
    12  C   -0.153833
    13  C   -0.189350
    14  C   -0.365602
    15  C    0.210313
    16  H    0.055147
    17  H    0.105227
    18  H    0.100860
    19  H    0.075866
    20  H    0.135322
    21  H    0.103049
    22  H    0.109450
    23  H    0.106770
    24  H    0.137748
    25  H    0.105583
    26  H    0.093096
    27  H    0.084357
    28  H    0.082751
    29  H    0.082961
    30  H    0.122889
    31  H    0.114112
    32  H    0.136249
    33  H    0.319979
 Sum of Mulliken charges =  -0.00000
 Mulliken charges with hydrogens summed into heavy atoms:
               1
     1  O   -0.038942
     2  O   -0.292229
     3  C    0.098618
     4  C   -0.012913
     5  C    0.183472
     6  C    0.213390
     7  C    0.089774
     8  C   -0.026400
     9  C   -0.034936
    10  C   -0.107408
    11  C   -0.112916
    12  C   -0.071082
    13  C   -0.106389
    14  C    0.007648
    15  C    0.210313
 Electronic spatial extent (au):  <R**2>=           4279.3148
 Charge=              0.0000 electrons
 Dipole moment (field-independent basis, Debye):
    X=              0.8860    Y=             -0.9959    Z=              0.0894  Tot=              1.3359
 Quadrupole moment (field-independent basis, Debye-Ang):
   XX=            -78.9779   YY=            -94.0913   ZZ=            -88.3130
   XY=              2.6571   XZ=              0.8314   YZ=             -1.8211
 Traceless Quadrupole moment (field-independent basis, Debye-Ang):
   XX=              8.1495   YY=             -6.9639   ZZ=             -1.1856
   XY=              2.6571   XZ=              0.8314   YZ=             -1.8211
 Octapole moment (field-independent basis, Debye-Ang**2):
  XXX=             65.7382  YYY=             12.3418  ZZZ=             -0.4531  XYY=             21.8514
  XXY=             30.2366  XXZ=              2.9980  XZZ=             12.7765  YZZ=              2.3930
  YYZ=              8.0139  XYZ=              3.0598
 Hexadecapole moment (field-independent basis, Debye-Ang**3):
 XXXX=          -4167.4893 YYYY=           -767.8249 ZZZZ=           -541.8806 XXXY=            222.6264
 XXXZ=             24.2789 YYYX=             62.4407 YYYZ=              5.7804 ZZZX=             21.3556
 ZZZY=            -11.9952 XXYY=           -764.8506 XXZZ=           -826.3953 YYZZ=           -215.2004
 XXYZ=             18.6514 YYXZ=              7.2022 ZZXY=             21.2223
 N-N= 9.854589436269D+02 E-N=-3.500877106078D+03  KE= 6.541335910322D+02
 Unable to Open any file for archive entry.
 1\1\GINC-NODE12\SP\RTPSSTPSS\def2TZVP\C13H18O2\RPATON\13-Feb-2026\0\\#
  TPSSTPSS/def2TZVP emp=GD3BJ\\TPSS Beck Johnson damped\\0,1\O,0,-4.445
 7,-1.0032,0.4113\O,0,-2.4005,-1.9114,0.0531\C,0,3.9024,-0.4411,0.0362\
 C,0,3.1486,0.8194,-0.4313\C,0,1.6528,0.7393,-0.2472\C,0,-1.0946,0.5935
 ,0.0901\C,0,-2.5728,0.5152,0.2719\C,0,3.6076,-0.776,1.5005\C,0,3.5239,
 -1.6299,-0.8505\C,0,0.869,0.2281,-1.2695\C,0,1.0897,1.1791,0.9405\C,0,
 -0.5135,0.1549,-1.0998\C,0,-0.2929,1.1057,1.1102\C,0,-3.3736,1.3495,-0
 .7486\C,0,-3.1004,-0.9233,0.2332\H,0,4.9775,-0.2527,-0.0735\H,0,3.3789
 ,1.0242,-1.4854\H,0,3.5298,1.6907,0.1182\H,0,-2.8243,0.8896,1.2739\H,0
 ,2.5794,-1.1167,1.6574\H,0,3.7958,0.0879,2.1462\H,0,4.2658,-1.5849,1.8
 375\H,0,4.1778,-2.4814,-0.6301\H,0,2.4964,-1.9688,-0.6863\H,0,3.6494,-
 1.3895,-1.9115\H,0,1.3084,-0.1099,-2.2035\H,0,1.7024,1.5855,1.7398\H,0
 ,-1.1208,-0.2449,-1.9075\H,0,-0.729,1.4534,2.043\H,0,-3.0012,2.3792,-0
 .784\H,0,-3.3032,0.9294,-1.7582\H,0,-4.4357,1.3895,-0.4835\H,0,-4.7639
 ,-1.9305,0.3782\\Version=AS64L-G16RevC.01\State=1-A\HF=-657.090998\RMS
 D=3.600e-09\Dipole=-0.3432003,0.3955063,0.0452289\Quadrupole=6.1213996
 ,-5.3143701,-0.8070294,1.8209475,-0.4895783,1.2355286\PG=C01 [X(C13H18
 O2)]\\@
 The archive entry for this job was punched.


 HE THAT IS UNAWARE OF HIS IGNORANCE WILL BE MISLED BY HIS KNOWLEDGE.

                                        -- WHATLEY
 Job cpu time:       0 days  0 hours 32 minutes 54.9 seconds.
 Elapsed time:       0 days  0 hours  2 minutes 13.6 seconds.
 File lengths (MBytes):  RWF=    182 Int=      0 D2E=      0 Chk=     21 Scr=      1
 Normal termination of Gaussian 16 at Fri Feb 13 22:21:38 2026.
 Initial command:
 /opt/apps/Gaussian/G16C/g16/l1.exe "/tmp/781375/Gau-1544398.inp" -scrdir="/tmp/781375/"
 Entering Link 1 = /opt/apps/Gaussian/G16C/g16/l1.exe PID=   1544796.
  
 Copyright (c) 1988-2019, Gaussian, Inc.  All Rights Reserved.
  
 This is part of the Gaussian(R) 16 program.  It is based on
 the Gaussian(R) 09 system (copyright 2009, Gaussian, Inc.),
 the Gaussian(R) 03 system (copyright 2003, Gaussian, Inc.),
 the Gaussian(R) 98 system (copyright 1998, Gaussian, Inc.),
 the Gaussian(R) 94 system (copyright 1995, Gaussian, Inc.),
 the Gaussian 92(TM) system (copyright 1992, Gaussian, Inc.),
 the Gaussian 90(TM) system (copyright 1990, Gaussian, Inc.),
 the Gaussian 88(TM) system (copyright 1988, Gaussian, Inc.),
 the Gaussian 86(TM) system (copyright 1986, Carnegie Mellon
 University), and the Gaussian 82(TM) system (copyright 1983,
 Carnegie Mellon University). Gaussian is a federally registered
 trademark of Gaussian, Inc.
  
 This software contains proprietary and confidential information,
 including trade secrets, belonging to Gaussian, Inc.
  
 This software is provided under written license and may be
 used, copied, transmitted, or stored only in accord with that
 written license.
  
 The following legend is applicable only to US Government
 contracts under FAR:
  
                    RESTRICTED RIGHTS LEGEND
  
 Use, reproduction and disclosure by the US Government is
 subject to restrictions as set forth in subparagraphs (a)
 and (c) of the Commercial Computer Software - Restricted
 Rights clause in FAR 52.227-19.
  
 Gaussian, Inc.
 340 Quinnipiac St., Bldg. 40, Wallingford CT 06492
  
  
 ---------------------------------------------------------------
 Warning -- This program may not be used in any manner that
 competes with the business of Gaussian, Inc. or will provide
 assistance to any competitor of Gaussian, Inc.  The licensee
 of this program is prohibited from giving any competitor of
 Gaussian, Inc. access to this program.  By using this program,
 the user acknowledges that Gaussian, Inc. is engaged in the
 business of creating and licensing software in the field of
 computational chemistry and represents and warrants to the
 licensee that it is not a competitor of Gaussian, Inc. and that
 it will not use this program in any manner prohibited above.
 ---------------------------------------------------------------
  

 Cite this work as:
 Gaussian 16, Revision C.01,
 M. J. Frisch, G. W. Trucks, H. B. Schlegel, G. E. Scuseria, 
 M. A. Robb, J. R. Cheeseman, G. Scalmani, V. Barone, 
 G. A. Petersson, H. Nakatsuji, X. Li, M. Caricato, A. V. Marenich, 
 J. Bloino, B. G. Janesko, R. Gomperts, B. Mennucci, H. P. Hratchian, 
 J. V. Ortiz, A. F. Izmaylov, J. L. Sonnenberg, D. Williams-Young, 
 F. Ding, F. Lipparini, F. Egidi, J. Goings, B. Peng, A. Petrone, 
 T. Henderson, D. Ranasinghe, V. G. Zakrzewski, J. Gao, N. Rega, 
 G. Zheng, W. Liang, M. Hada, M. Ehara, K. Toyota, R. Fukuda, 
 J. Hasegawa, M. Ishida, T. Nakajima, Y. Honda, O. Kitao, H. Nakai, 
 T. Vreven, K. Throssell, J. A. Montgomery, Jr., J. E. Peralta, 
 F. Ogliaro, M. J. Bearpark, J. J. Heyd, E. N. Brothers, K. N. Kudin, 
 V. N. Staroverov, T. A. Keith, R. Kobayashi, J. Normand, 
 K. Raghavachari, A. P. Rendell, J. C. Burant, S. S. Iyengar, 
 J. Tomasi, M. Cossi, J. M. Millam, M. Klene, C. Adamo, R. Cammi, 
 J. W. Ochterski, R. L. Martin, K. Morokuma, O. Farkas, 
 J. B. Foresman, and D. J. Fox, Gaussian, Inc., Wallingford CT, 2019.
 
 ******************************************
 Gaussian 16:  AS64L-G16RevC.01  3-Jul-2019
                13-Feb-2026 
 ******************************************
 %chk=ibuprofen.chk
 %nproc=16
 Will use up to   16 processors via shared memory.
 %mem=96GB
 --------------------------------------------
 # geom=check guess=read M06/def2TZVP emp=GD3
 --------------------------------------------
 1/29=2,38=1,172=1/1;
 2/12=2,40=1/2;
 3/5=44,7=101,11=2,14=-4,25=1,30=1,74=-54,116=-2,124=31/1,2,3;
 4/5=1/1;
 5/5=2,38=6/2;
 6/7=2,8=2,9=2,10=2,28=1/1;
 99/5=1,9=1/99;
 ---------------
 M06 zero-damped
 ---------------
 Structure from the checkpoint file:  "ibuprofen.chk"
 Charge =  0 Multiplicity = 1
 Z-Matrix found in chk file.
 O,0,-4.4457,-1.0032,0.4113
 O,0,-2.4005,-1.9114,0.0531
 C,0,3.9024,-0.4411,0.0362
 C,0,3.1486,0.8194,-0.4313
 C,0,1.6528,0.7393,-0.2472
 C,0,-1.0946,0.5935,0.0901
 C,0,-2.5728,0.5152,0.2719
 C,0,3.6076,-0.776,1.5005
 C,0,3.5239,-1.6299,-0.8505
 C,0,0.869,0.2281,-1.2695
 C,0,1.0897,1.1791,0.9405
 C,0,-0.5135,0.1549,-1.0998
 C,0,-0.2929,1.1057,1.1102
 C,0,-3.3736,1.3495,-0.7486
 C,0,-3.1004,-0.9233,0.2332
 H,0,4.9775,-0.2527,-0.0735
 H,0,3.3789,1.0242,-1.4854
 H,0,3.5298,1.6907,0.1182
 H,0,-2.8243,0.8896,1.2739
 H,0,2.5794,-1.1167,1.6574
 H,0,3.7958,0.0879,2.1462
 H,0,4.2658,-1.5849,1.8375
 H,0,4.1778,-2.4814,-0.6301
 H,0,2.4964,-1.9688,-0.6863
 H,0,3.6494,-1.3895,-1.9115
 H,0,1.3084,-0.1099,-2.2035
 H,0,1.7024,1.5855,1.7398
 H,0,-1.1208,-0.2449,-1.9075
 H,0,-0.729,1.4534,2.043
 H,0,-3.0012,2.3792,-0.784
 H,0,-3.3032,0.9294,-1.7582
 H,0,-4.4357,1.3895,-0.4835
 H,0,-4.7639,-1.9305,0.3782
 Recover connectivity data from disk.
                          Input orientation:                          
 ---------------------------------------------------------------------
 Center     Atomic      Atomic             Coordinates (Angstroms)
 Number     Number       Type             X           Y           Z
 ---------------------------------------------------------------------
      1          8           0       -4.445700   -1.003200    0.411300
      2          8           0       -2.400500   -1.911400    0.053100
      3          6           0        3.902400   -0.441100    0.036200
      4          6           0        3.148600    0.819400   -0.431300
      5          6           0        1.652800    0.739300   -0.247200
      6          6           0       -1.094600    0.593500    0.090100
      7          6           0       -2.572800    0.515200    0.271900
      8          6           0        3.607600   -0.776000    1.500500
      9          6           0        3.523900   -1.629900   -0.850500
     10          6           0        0.869000    0.228100   -1.269500
     11          6           0        1.089700    1.179100    0.940500
     12          6           0       -0.513500    0.154900   -1.099800
     13          6           0       -0.292900    1.105700    1.110200
     14          6           0       -3.373600    1.349500   -0.748600
     15          6           0       -3.100400   -0.923300    0.233200
     16          1           0        4.977500   -0.252700   -0.073500
     17          1           0        3.378900    1.024200   -1.485400
     18          1           0        3.529800    1.690700    0.118200
     19          1           0       -2.824300    0.889600    1.273900
     20          1           0        2.579400   -1.116700    1.657400
     21          1           0        3.795800    0.087900    2.146200
     22          1           0        4.265800   -1.584900    1.837500
     23          1           0        4.177800   -2.481400   -0.630100
     24          1           0        2.496400   -1.968800   -0.686300
     25          1           0        3.649400   -1.389500   -1.911500
     26          1           0        1.308400   -0.109900   -2.203500
     27          1           0        1.702400    1.585500    1.739800
     28          1           0       -1.120800   -0.244900   -1.907500
     29          1           0       -0.729000    1.453400    2.043000
     30          1           0       -3.001200    2.379200   -0.784000
     31          1           0       -3.303200    0.929400   -1.758200
     32          1           0       -4.435700    1.389500   -0.483500
     33          1           0       -4.763900   -1.930500    0.378200
 ---------------------------------------------------------------------
                    Distance matrix (angstroms):
                    1          2          3          4          5
     1  O    0.000000
     2  O    2.266270   0.000000
     3  C    8.375406   6.472142   0.000000
     4  C    7.855268   6.203581   1.541308   0.000000
     5  C    6.376647   4.852384   2.556239   1.509214   0.000000
     6  C    3.725922   2.825114   5.103265   4.281079   2.771865
     7  C    2.415104   2.442529   6.549678   5.772473   4.263259
     8  C    8.129798   6.283420   1.530764   2.547123   3.028503
     9  C    8.093171   5.999521   1.530603   2.513096   3.078651
    10  C    5.708522   4.125089   3.369599   2.499758   1.385917
    11  C    5.973537   4.745542   3.369583   2.500058   1.386051
    12  C    4.368846   3.026474   4.598465   3.781459   2.400272
    13  C    4.709742   3.829142   4.598544   3.781813   2.400527
    14  C    2.833719   3.496157   7.534078   6.551395   5.088069
    15  C    1.359388   1.224189   7.022146   6.521393   5.058452
    16  H    9.465462   7.563213   1.096982   2.149952   3.473883
    17  H    8.302541   6.662296   2.176332   1.098229   2.143298
    18  H    8.423278   6.938863   2.165670   1.098375   2.135839
    19  H    2.637368   3.084730   6.967866   6.211938   4.730831
    20  H    7.135662   5.291950   2.198876   2.904331   2.816172
    21  H    8.492508   6.839035   2.177913   2.756350   3.277977
    22  H    8.846618   6.908708   2.164491   3.489448   4.071320
    23  H    8.811035   6.638200   2.163937   3.463243   4.110371
    24  H    7.094354   4.952740   2.198342   2.874795   2.870240
    25  H    8.430615   6.382266   2.181056   2.705741   3.359776
    26  H    6.383168   4.700381   3.443078   2.718571   2.160292
    27  H    6.801868   5.648633   3.442290   2.718838   2.160251
    28  H    4.123932   2.873814   5.389713   4.641086   3.379068
    29  H    4.744596   4.251528   5.391312   4.643264   3.380522
    30  H    3.867293   4.412576   7.502434   6.354322   4.963582
    31  H    3.122015   3.487954   7.551080   6.587753   5.184708
    32  H    2.554561   3.914833   8.552491   7.605876   6.127677
    33  H    0.980934   2.385731   8.800002   8.415753   6.978037
                    6          7          8          9         10
     6  C    0.000000
     7  C    1.491394   0.000000
     8  C    5.096611   6.432262   0.000000
     9  C    5.211408   6.559801   2.502669   0.000000
    10  C    2.416145   3.782106   4.022567   3.267448   0.000000
    11  C    2.416045   3.781758   3.236640   4.125953   2.416032
    12  C    1.394958   2.500419   4.961008   4.421341   1.394798
    13  C    1.394875   2.499876   4.348221   5.088793   2.789833
    14  C    2.543383   1.542322   7.636318   7.514168   4.419110
    15  C    2.518808   1.532691   6.828251   6.749447   4.397723
    16  H    6.132962   7.597105   2.151266   2.147874   4.305968
    17  H    4.762342   6.226549   3.494084   2.732832   2.641966
    18  H    4.752864   6.216683   2.828677   3.459017   3.338378
    19  H    2.116818   1.098832   6.647925   7.152664   4.532872
    20  H    4.345053   5.579236   1.094481   2.728556   3.647012
    21  H    5.329089   6.652417   1.094838   3.464820   4.500313
    22  H    6.044230   7.323112   1.095954   2.788868   4.947592
    23  H    6.145885   7.440687   2.788005   1.095999   4.324162
    24  H    4.479225   5.725835   2.727569   1.094336   2.795518
    25  H    5.517629   6.863737   3.466969   1.095109   3.280155
    26  H    3.395553   4.645651   4.410173   3.008230   1.086127
    27  H    3.395406   4.645170   3.043638   4.512905   3.404846
    28  H    2.166566   2.726874   5.852717   4.960717   2.142447
    29  H    2.164927   2.723346   4.906183   5.997186   3.876547
    30  H    2.754614   2.184708   7.671406   7.658605   4.454367
    31  H    2.899475   2.196896   7.828580   7.347328   4.258862
    32  H    3.482181   2.192128   8.562729   8.520956   5.486938
    33  H    4.462885   3.285372   8.524930   8.383776   6.253322
                   11         12         13         14         15
    11  C    0.000000
    12  C    2.789634   0.000000
    13  C    1.394908   2.415944   0.000000
    14  C    4.775264   3.119388   3.606285   0.000000
    15  C    4.741023   3.103459   3.573238   2.490821   0.000000
    16  H    4.265353   5.600938   5.569875   8.530163   8.111488
    17  H    3.339075   4.006888   4.497321   6.800364   6.980521
    18  H    2.625262   4.493382   3.992408   6.965967   7.127817
    19  H    3.938827   3.393233   2.545876   2.145634   2.108529
    20  H    2.829108   4.334184   3.672683   6.878167   5.858829
    21  H    3.157120   5.395468   4.338972   7.834015   7.227701
    22  H    4.304871   5.873359   5.343224   8.582485   7.567853
    23  H    5.040080   5.401758   5.990249   8.468381   7.493007
    24  H    3.812421   3.706829   4.523291   6.743285   5.767384
    25  H    4.613423   4.513731   5.558635   7.627384   7.097667
    26  H    3.405009   2.146530   3.875881   5.115438   5.102611
    27  H    1.086022   3.875585   2.146585   5.658057   5.624127
    28  H    3.876234   1.086753   3.408233   2.993371   2.993600
    29  H    2.144392   3.407306   1.086828   3.846782   3.814134
    30  H    4.598870   3.351998   3.541848   1.095544   3.457028
    31  H    5.161676   2.969136   4.161815   1.095779   2.727508
    32  H    5.709824   4.157850   4.447833   1.095415   2.765091
    33  H    6.652099   4.959766   5.453822   3.736444   1.950054
                   16         17         18         19         20
    16  H    0.000000
    17  H    2.485851   0.000000
    18  H    2.430923   1.743137   0.000000
    19  H    7.999276   6.790548   6.507841   0.000000
    20  H    3.081135   3.885852   3.339744   5.776875   0.000000
    21  H    2.537615   3.773458   2.598559   6.725277   1.780341
    22  H    2.435815   4.316904   3.771902   7.530625   1.759430
    23  H    2.432371   3.695810   4.287922   8.001141   3.106436
    24  H    3.078373   3.221089   3.886782   6.350014   2.495174
    25  H    2.536613   2.465903   3.690748   7.566364   3.735822
    26  H    4.244948   2.467554   3.683350   5.492770   4.187557
    27  H    4.170529   3.677992   2.445413   4.603515   2.842148
    28  H    6.368114   4.694261   5.429373   3.782897   5.211528
    29  H    6.320957   5.432188   4.679588   2.302101   4.207091
    30  H    8.431569   6.560005   6.628873   2.546597   7.023165
    31  H    8.532618   6.688338   7.126734   3.069945   7.103368
    32  H    9.564165   7.887029   7.993870   2.436178   7.750879
    33  H    9.895146   8.860499   9.053516   3.537978   7.498178
                   21         22         23         24         25
    21  H    0.000000
    22  H    1.764782   0.000000
    23  H    3.801982   2.626881   0.000000
    24  H    3.733833   3.106078   1.758699   0.000000
    25  H    4.320772   3.804357   1.764494   1.779357   0.000000
    26  H    5.014596   5.220299   4.041418   2.677452   2.683826
    27  H    2.605819   4.078235   5.318243   4.376008   5.096413
    28  H    6.380924   6.695975   5.891421   4.188949   4.905602
    29  H    4.727479   5.849917   6.834091   5.437254   6.549087
    30  H    7.748247   8.683066   8.671053   7.009868   7.726890
    31  H    8.145444   8.748744   8.298887   6.571445   7.330719
    32  H    8.738826   9.484208   9.444456   7.705408   8.667806
    33  H    8.970408   9.153386   9.015218   7.338023   8.736076
                   26         27         28         29         30
    26  H    0.000000
    27  H    4.310363   0.000000
    28  H    2.450888   4.962219   0.000000
    29  H    4.962627   2.453790   4.317891   0.000000
    30  H    5.175254   5.396608   3.418195   3.743251   0.000000
    31  H    4.748188   6.141865   2.482769   4.620628   1.772622
    32  H    6.180719   6.531290   3.960758   4.486303   1.768501
    33  H    6.844895   7.485269   4.619291   5.522930   4.799097
                   31         32         33
    31  H    0.000000
    32  H    1.766100   0.000000
    33  H    3.857056   3.445670   0.000000
 Stoichiometry    C13H18O2
 Framework group  C1[X(C13H18O2)]
 Deg. of freedom    93
 Full point group                 C1      NOp   1
 Largest Abelian subgroup         C1      NOp   1
 Largest concise Abelian subgroup C1      NOp   1
                         Standard orientation:                         
 ---------------------------------------------------------------------
 Center     Atomic      Atomic             Coordinates (Angstroms)
 Number     Number       Type             X           Y           Z
 ---------------------------------------------------------------------
      1          8           0        4.446257    1.004235    0.472515
      2          8           0        2.390657    1.894151    0.128229
      3          6           0       -3.890036    0.335498    0.018170
      4          6           0       -3.114854   -0.898615   -0.483514
      5          6           0       -1.621680   -0.803117   -0.285931
      6          6           0        1.120921   -0.629006    0.076092
      7          6           0        2.596538   -0.535484    0.271189
      8          6           0       -3.610259    0.627782    1.494495
      9          6           0       -3.522651    1.557193   -0.827546
     10          6           0       -0.838302   -0.248520   -1.285684
     11          6           0       -1.060511   -1.272435    0.891339
     12          6           0        0.541786   -0.161073   -1.103549
     13          6           0        0.319674   -1.184787    1.073482
     14          6           0        3.416375   -1.325384   -0.769332
     15          6           0        3.103520    0.910889    0.282046
     16          1           0       -4.961512    0.135390   -0.105384
     17          1           0       -3.334862   -1.073017   -1.545253
     18          1           0       -3.487200   -1.792307    0.035235
     19          1           0        2.846487   -0.937970    1.262633
     20          1           0       -2.588209    0.977927    1.669710
     21          1           0       -3.790403   -0.258828    2.111052
     22          1           0       -4.282414    1.416086    1.852124
     23          1           0       -4.190316    2.391844   -0.585071
     24          1           0       -2.501324    1.905296   -0.645097
     25          1           0       -3.637309    1.348926   -1.896537
     26          1           0       -1.276070    0.112747   -2.211706
     27          1           0       -1.672785   -1.712760    1.672798
     28          1           0        1.148814    0.272846   -1.893652
     29          1           0        0.754291   -1.555757    1.997973
     30          1           0        3.059170   -2.358635   -0.840133
     31          1           0        3.346894   -0.874404   -1.765586
     32          1           0        4.477082   -1.358669   -0.497803
     33          1           0        4.751225    1.936557    0.471204
 ---------------------------------------------------------------------
 Rotational constants (GHZ):           1.3038705           0.2852066           0.2712529
 Standard basis: def2TZVP (5D, 7F)
 There are   648 symmetry adapted cartesian basis functions of A   symmetry.
 There are   573 symmetry adapted basis functions of A   symmetry.
   573 basis functions,   909 primitive gaussians,   648 cartesian basis functions
    56 alpha electrons       56 beta electrons
       nuclear repulsion energy       985.5069704769 Hartrees.
 NAtoms=   33 NActive=   33 NUniq=   33 SFac= 1.00D+00 NAtFMM=   60 NAOKFM=F Big=F
 Integral buffers will be    131072 words long.
 Raffenetti 2 integral format.
 Two-electron integral symmetry is turned on.
 Nuclear repulsion after empirical dispersion term =      985.5016642170 Hartrees.
 One-electron integrals computed using PRISM.
   1 Symmetry operations used in ECPInt.
 ECPInt:  NShTT=   28203 NPrTT=   83820 LenC2=   25425 LenP2D=   56184.
 LDataN:  DoStor=T MaxTD1= 6 Len=  172
 NBasis=   573 RedAO= T EigKep=  6.39D-06  NBF=   573
 NBsUse=   573 1.00D-06 EigRej= -1.00D+00 NBFU=   573
 Initial guess from the checkpoint file:  "ibuprofen.chk"
 B after Tr=    -0.000000   -0.000000   -0.000000
         Rot=    1.000000   -0.000000    0.000000   -0.000000 Ang=   0.00 deg.
 Requested convergence on RMS density matrix=1.00D-08 within 128 cycles.
 Requested convergence on MAX density matrix=1.00D-06.
 Requested convergence on             energy=1.00D-06.
 No special actions if energy rises.
 SCF Done:  E(RM06) =  -656.478723887     A.U. after   12 cycles
            NFock= 12  Conv=0.65D-08     -V/T= 2.0053

 **********************************************************************

            Population analysis using the SCF Density.

 **********************************************************************

 Orbital symmetries:
       Occupied  (A) (A) (A) (A) (A) (A) (A) (A) (A) (A) (A) (A)
                 (A) (A) (A) (A) (A) (A) (A) (A) (A) (A) (A) (A)
                 (A) (A) (A) (A) (A) (A) (A) (A) (A) (A) (A) (A)
                 (A) (A) (A) (A) (A) (A) (A) (A) (A) (A) (A) (A)
                 (A) (A) (A) (A) (A) (A) (A) (A)
       Virtual   (A) (A) (A) (A) (A) (A) (A) (A) (A) (A) (A) (A)
                 (A) (A) (A) (A) (A) (A) (A) (A) (A) (A) (A) (A)
                 (A) (A) (A) (A) (A) (A) (A) (A) (A) (A) (A) (A)
                 (A) (A) (A) (A) (A) (A) (A) (A) (A) (A) (A) (A)
                 (A) (A) (A) (A) (A) (A) (A) (A) (A) (A) (A) (A)
                 (A) (A) (A) (A) (A) (A) (A) (A) (A) (A) (A) (A)
                 (A) (A) (A) (A) (A) (A) (A) (A) (A) (A) (A) (A)
                 (A) (A) (A) (A) (A) (A) (A) (A) (A) (A) (A) (A)
                 (A) (A) (A) (A) (A) (A) (A) (A) (A) (A) (A) (A)
                 (A) (A) (A) (A) (A) (A) (A) (A) (A) (A) (A) (A)
                 (A) (A) (A) (A) (A) (A) (A) (A) (A) (A) (A) (A)
                 (A) (A) (A) (A) (A) (A) (A) (A) (A) (A) (A) (A)
                 (A) (A) (A) (A) (A) (A) (A) (A) (A) (A) (A) (A)
                 (A) (A) (A) (A) (A) (A) (A) (A) (A) (A) (A) (A)
                 (A) (A) (A) (A) (A) (A) (A) (A) (A) (A) (A) (A)
                 (A) (A) (A) (A) (A) (A) (A) (A) (A) (A) (A) (A)
                 (A) (A) (A) (A) (A) (A) (A) (A) (A) (A) (A) (A)
                 (A) (A) (A) (A) (A) (A) (A) (A) (A) (A) (A) (A)
                 (A) (A) (A) (A) (A) (A) (A) (A) (A) (A) (A) (A)
                 (A) (A) (A) (A) (A) (A) (A) (A) (A) (A) (A) (A)
                 (A) (A) (A) (A) (A) (A) (A) (A) (A) (A) (A) (A)
                 (A) (A) (A) (A) (A) (A) (A) (A) (A) (A) (A) (A)
                 (A) (A) (A) (A) (A) (A) (A) (A) (A) (A) (A) (A)
                 (A) (A) (A) (A) (A) (A) (A) (A) (A) (A) (A) (A)
                 (A) (A) (A) (A) (A) (A) (A) (A) (A) (A) (A) (A)
                 (A) (A) (A) (A) (A) (A) (A) (A) (A) (A) (A) (A)
                 (A) (A) (A) (A) (A) (A) (A) (A) (A) (A) (A) (A)
                 (A) (A) (A) (A) (A) (A) (A) (A) (A) (A) (A) (A)
                 (A) (A) (A) (A) (A) (A) (A) (A) (A) (A) (A) (A)
                 (A) (A) (A) (A) (A) (A) (A) (A) (A) (A) (A) (A)
                 (A) (A) (A) (A) (A) (A) (A) (A) (A) (A) (A) (A)
                 (A) (A) (A) (A) (A) (A) (A) (A) (A) (A) (A) (A)
                 (A) (A) (A) (A) (A) (A) (A) (A) (A) (A) (A) (A)
                 (A) (A) (A) (A) (A) (A) (A) (A) (A) (A) (A) (A)
                 (A) (A) (A) (A) (A) (A) (A) (A) (A) (A) (A) (A)
                 (A) (A) (A) (A) (A) (A) (A) (A) (A) (A) (A) (A)
                 (A) (A) (A) (A) (A) (A) (A) (A) (A) (A) (A) (A)
                 (A) (A) (A) (A) (A) (A) (A) (A) (A) (A) (A) (A)
                 (A) (A) (A) (A) (A) (A) (A) (A) (A) (A) (A) (A)
                 (A) (A) (A) (A) (A) (A) (A) (A) (A) (A) (A) (A)
                 (A) (A) (A) (A) (A) (A) (A) (A) (A) (A) (A) (A)
                 (A) (A) (A) (A) (A) (A) (A) (A) (A) (A) (A) (A)
                 (A) (A) (A) (A) (A) (A) (A) (A) (A) (A) (A) (A)
                 (A)
 The electronic state is 1-A.
 Alpha  occ. eigenvalues --  -19.26077 -19.19781 -10.37840 -10.26760 -10.24585
 Alpha  occ. eigenvalues --  -10.24116 -10.24113 -10.24072 -10.23943 -10.23754
 Alpha  occ. eigenvalues --  -10.23488 -10.23456 -10.23220 -10.21990 -10.21852
 Alpha  occ. eigenvalues --   -1.12492  -1.03649  -0.87814  -0.83432  -0.80745
 Alpha  occ. eigenvalues --   -0.75730  -0.75271  -0.69266  -0.68928  -0.67889
 Alpha  occ. eigenvalues --   -0.63002  -0.62006  -0.58484  -0.56455  -0.51760
 Alpha  occ. eigenvalues --   -0.51031  -0.49669  -0.48223  -0.47110  -0.46722
 Alpha  occ. eigenvalues --   -0.46241  -0.43972  -0.43649  -0.43439  -0.42335
 Alpha  occ. eigenvalues --   -0.42166  -0.40344  -0.39205  -0.38750  -0.38128
 Alpha  occ. eigenvalues --   -0.37188  -0.36738  -0.35914  -0.34988  -0.34264
 Alpha  occ. eigenvalues --   -0.33933  -0.33401  -0.32501  -0.29321  -0.26304
 Alpha  occ. eigenvalues --   -0.25025
 Alpha virt. eigenvalues --   -0.00930  -0.00502   0.00343   0.02685   0.03331
 Alpha virt. eigenvalues --    0.04690   0.05238   0.06422   0.06708   0.07323
 Alpha virt. eigenvalues --    0.08212   0.09464   0.09866   0.10177   0.10880
 Alpha virt. eigenvalues --    0.11031   0.11714   0.12864   0.13557   0.14190
 Alpha virt. eigenvalues --    0.14663   0.14965   0.15386   0.16252   0.16945
 Alpha virt. eigenvalues --    0.17614   0.18069   0.19037   0.19902   0.20740
 Alpha virt. eigenvalues --    0.21105   0.21599   0.22333   0.23355   0.23724
 Alpha virt. eigenvalues --    0.24282   0.24627   0.25299   0.25851   0.26224
 Alpha virt. eigenvalues --    0.26510   0.27854   0.28226   0.28362   0.29504
 Alpha virt. eigenvalues --    0.30207   0.30513   0.30984   0.31813   0.32016
 Alpha virt. eigenvalues --    0.32740   0.32851   0.34743   0.35306   0.35585
 Alpha virt. eigenvalues --    0.35796   0.36183   0.37335   0.37774   0.38179
 Alpha virt. eigenvalues --    0.38799   0.39081   0.39329   0.39734   0.40036
 Alpha virt. eigenvalues --    0.40343   0.41291   0.41660   0.41822   0.42435
 Alpha virt. eigenvalues --    0.42840   0.43016   0.43201   0.43639   0.44111
 Alpha virt. eigenvalues --    0.44916   0.45202   0.45747   0.46017   0.46338
 Alpha virt. eigenvalues --    0.46985   0.47130   0.48222   0.48924   0.50447
 Alpha virt. eigenvalues --    0.50904   0.51860   0.52047   0.52321   0.53156
 Alpha virt. eigenvalues --    0.54143   0.54656   0.56222   0.56618   0.57767
 Alpha virt. eigenvalues --    0.58179   0.58792   0.59652   0.61767   0.62440
 Alpha virt. eigenvalues --    0.64261   0.65194   0.65646   0.66164   0.67491
 Alpha virt. eigenvalues --    0.68778   0.69914   0.70310   0.71339   0.71599
 Alpha virt. eigenvalues --    0.73326   0.73828   0.74828   0.75963   0.77594
 Alpha virt. eigenvalues --    0.78361   0.79040   0.79991   0.81848   0.82913
 Alpha virt. eigenvalues --    0.83590   0.83924   0.84640   0.85760   0.85967
 Alpha virt. eigenvalues --    0.86409   0.88138   0.90145   0.91429   0.92089
 Alpha virt. eigenvalues --    0.93301   0.94131   0.95543   0.96101   0.96512
 Alpha virt. eigenvalues --    0.97212   0.98701   1.00196   1.01011   1.02073
 Alpha virt. eigenvalues --    1.04245   1.05805   1.05977   1.06301   1.07092
 Alpha virt. eigenvalues --    1.09013   1.09543   1.10231   1.10311   1.11656
 Alpha virt. eigenvalues --    1.12295   1.13638   1.15832   1.15940   1.17434
 Alpha virt. eigenvalues --    1.18734   1.19979   1.20887   1.21599   1.22690
 Alpha virt. eigenvalues --    1.24000   1.25520   1.26830   1.27666   1.28394
 Alpha virt. eigenvalues --    1.29586   1.30845   1.31199   1.32620   1.34224
 Alpha virt. eigenvalues --    1.35466   1.36800   1.38208   1.39861   1.40906
 Alpha virt. eigenvalues --    1.42978   1.43757   1.44676   1.45970   1.47220
 Alpha virt. eigenvalues --    1.48408   1.49717   1.50265   1.51163   1.51762
 Alpha virt. eigenvalues --    1.52339   1.52814   1.53520   1.54507   1.54840
 Alpha virt. eigenvalues --    1.55299   1.55750   1.57289   1.57716   1.57831
 Alpha virt. eigenvalues --    1.58475   1.59990   1.60739   1.61746   1.62915
 Alpha virt. eigenvalues --    1.63350   1.63953   1.65101   1.66268   1.67005
 Alpha virt. eigenvalues --    1.69297   1.70275   1.71300   1.72955   1.73487
 Alpha virt. eigenvalues --    1.74388   1.75923   1.77040   1.77519   1.78963
 Alpha virt. eigenvalues --    1.79093   1.81326   1.81590   1.83743   1.84990
 Alpha virt. eigenvalues --    1.86464   1.87328   1.87833   1.89099   1.89724
 Alpha virt. eigenvalues --    1.90959   1.91621   1.92949   1.93984   1.96709
 Alpha virt. eigenvalues --    1.97502   1.99082   2.00684   2.01773   2.02341
 Alpha virt. eigenvalues --    2.06113   2.07275   2.08849   2.09304   2.09508
 Alpha virt. eigenvalues --    2.10263   2.11650   2.13656   2.14079   2.15104
 Alpha virt. eigenvalues --    2.16270   2.16913   2.18223   2.19010   2.19494
 Alpha virt. eigenvalues --    2.20520   2.23042   2.24073   2.24276   2.25073
 Alpha virt. eigenvalues --    2.26695   2.28557   2.28934   2.30226   2.30692
 Alpha virt. eigenvalues --    2.32343   2.32641   2.33640   2.34700   2.35575
 Alpha virt. eigenvalues --    2.35964   2.37492   2.39077   2.40676   2.40945
 Alpha virt. eigenvalues --    2.41259   2.42022   2.43738   2.46405   2.47080
 Alpha virt. eigenvalues --    2.47574   2.49912   2.51252   2.51557   2.52711
 Alpha virt. eigenvalues --    2.53984   2.55440   2.56250   2.56988   2.57501
 Alpha virt. eigenvalues --    2.57658   2.59189   2.59557   2.60603   2.62196
 Alpha virt. eigenvalues --    2.62759   2.63747   2.64112   2.65684   2.66186
 Alpha virt. eigenvalues --    2.67834   2.68421   2.69513   2.69936   2.71273
 Alpha virt. eigenvalues --    2.72559   2.73546   2.75149   2.75993   2.76493
 Alpha virt. eigenvalues --    2.76650   2.77444   2.78903   2.79987   2.80211
 Alpha virt. eigenvalues --    2.81703   2.82025   2.82860   2.83525   2.84444
 Alpha virt. eigenvalues --    2.86495   2.88072   2.89665   2.90214   2.91883
 Alpha virt. eigenvalues --    2.92428   2.93138   2.94843   2.95266   2.96506
 Alpha virt. eigenvalues --    2.98078   2.99249   3.00359   3.01687   3.02280
 Alpha virt. eigenvalues --    3.02637   3.04344   3.06201   3.06946   3.07862
 Alpha virt. eigenvalues --    3.08320   3.09016   3.09530   3.11474   3.11920
 Alpha virt. eigenvalues --    3.12066   3.12993   3.13555   3.14293   3.15235
 Alpha virt. eigenvalues --    3.15708   3.16153   3.18457   3.19565   3.20643
 Alpha virt. eigenvalues --    3.21928   3.22424   3.23242   3.24303   3.24754
 Alpha virt. eigenvalues --    3.25757   3.26868   3.27808   3.28331   3.28525
 Alpha virt. eigenvalues --    3.29837   3.30190   3.30554   3.31330   3.32671
 Alpha virt. eigenvalues --    3.32988   3.34258   3.35102   3.35923   3.36714
 Alpha virt. eigenvalues --    3.37721   3.38358   3.39246   3.39514   3.40068
 Alpha virt. eigenvalues --    3.41186   3.41901   3.43597   3.44394   3.44784
 Alpha virt. eigenvalues --    3.45873   3.47532   3.47894   3.48221   3.48906
 Alpha virt. eigenvalues --    3.50491   3.51501   3.52478   3.53714   3.55134
 Alpha virt. eigenvalues --    3.57604   3.58230   3.59880   3.60331   3.61370
 Alpha virt. eigenvalues --    3.62480   3.64669   3.66215   3.67028   3.68117
 Alpha virt. eigenvalues --    3.68704   3.71227   3.71886   3.73953   3.75047
 Alpha virt. eigenvalues --    3.76114   3.77735   3.79212   3.82293   3.83815
 Alpha virt. eigenvalues --    3.85358   3.86850   3.88170   3.89608   3.90668
 Alpha virt. eigenvalues --    3.91602   3.93167   3.94586   3.95971   3.96265
 Alpha virt. eigenvalues --    3.97622   3.98821   4.01880   4.02699   4.04829
 Alpha virt. eigenvalues --    4.07259   4.08153   4.09304   4.11076   4.12652
 Alpha virt. eigenvalues --    4.13473   4.15861   4.16023   4.17615   4.19623
 Alpha virt. eigenvalues --    4.20281   4.20833   4.21364   4.23191   4.23977
 Alpha virt. eigenvalues --    4.25347   4.26486   4.29413   4.31337   4.31726
 Alpha virt. eigenvalues --    4.33404   4.36075   4.37442   4.41099   4.43515
 Alpha virt. eigenvalues --    4.45046   4.46007   4.52235   4.53399   4.54821
 Alpha virt. eigenvalues --    4.56825   4.59893   4.60661   4.64306   4.69461
 Alpha virt. eigenvalues --    4.73084   4.74608   4.78300   4.84117   4.87915
 Alpha virt. eigenvalues --    4.89494   4.92004   4.94279   5.00068   5.02035
 Alpha virt. eigenvalues --    5.04633   5.16599   5.18425   5.18865   5.21034
 Alpha virt. eigenvalues --    5.21543   5.23984   5.34383   5.38351   5.44077
 Alpha virt. eigenvalues --    5.45832   5.49459   5.52144   5.59848   5.63257
 Alpha virt. eigenvalues --    5.72144   5.86670   5.88002   6.15374   6.19816
 Alpha virt. eigenvalues --    6.33453   6.40247   6.51477   6.55868   6.68801
 Alpha virt. eigenvalues --    6.74844   6.76547   6.88072   6.95360   7.09355
 Alpha virt. eigenvalues --    7.16013   7.29592  22.14574  22.34633  22.37322
 Alpha virt. eigenvalues --   22.40633  22.55925  22.60420  22.62633  22.72475
 Alpha virt. eigenvalues --   22.75528  22.79646  22.92930  23.15637  23.34105
 Alpha virt. eigenvalues --   43.79157  43.86636
          Condensed to atoms (all electrons):
               1          2          3          4          5          6
     1  O    8.009412  -0.082871   0.000000  -0.000000  -0.000003   0.016197
     2  O   -0.082871   8.037291   0.000007   0.000016  -0.000321   0.014389
     3  C    0.000000   0.000007   5.330486   0.142912   0.070303  -0.001784
     4  C   -0.000000   0.000016   0.142912   5.425865  -0.009865   0.003250
     5  C   -0.000003  -0.000321   0.070303  -0.009865   5.543226  -0.162222
     6  C    0.016197   0.014389  -0.001784   0.003250  -0.162222   5.497052
     7  C   -0.125735  -0.114393   0.000026  -0.000322   0.000705   0.052337
     8  C   -0.000000  -0.000009   0.157579  -0.017148  -0.002504  -0.000672
     9  C   -0.000000  -0.000038   0.164779  -0.035880   0.004296  -0.000242
    10  C   -0.000015   0.000417  -0.019673  -0.033815   0.235038   0.094993
    11  C   -0.000010  -0.000316  -0.019100  -0.032480   0.253681   0.087845
    12  C   -0.000416  -0.001008   0.003614  -0.002312   0.099978   0.230800
    13  C   -0.000762   0.009900   0.004380  -0.004191   0.068472   0.312767
    14  C   -0.005461  -0.000421   0.000001  -0.000002  -0.001056  -0.023044
    15  C    0.352083   0.535556   0.000004   0.000012  -0.001537   0.027619
    16  H    0.000000   0.000000   0.490553  -0.099643   0.016337   0.000021
    17  H   -0.000000  -0.000000  -0.052416   0.468714  -0.080630   0.000031
    18  H   -0.000000   0.000000  -0.054286   0.458437  -0.079979   0.000328
    19  H    0.004443   0.001591  -0.000001  -0.000001   0.000654  -0.088991
    20  H    0.000000   0.000022  -0.004013  -0.031759   0.017507  -0.000793
    21  H   -0.000000   0.000000  -0.078961   0.017037  -0.015943   0.000207
    22  H    0.000000   0.000000  -0.043021   0.011122   0.000155  -0.000009
    23  H    0.000000   0.000000  -0.045389   0.012068   0.000133  -0.000014
    24  H    0.000000   0.000106  -0.004257  -0.033144   0.017178  -0.000554
    25  H    0.000000   0.000000  -0.077098   0.018552  -0.013208   0.000021
    26  H    0.000000   0.000016  -0.003163   0.003482  -0.086055   0.012757
    27  H   -0.000000  -0.000004  -0.003054   0.003051  -0.089612   0.016005
    28  H   -0.000378   0.003181   0.000011  -0.000299   0.013208  -0.082154
    29  H   -0.000022   0.000392  -0.000009  -0.000155   0.015794  -0.060710
    30  H    0.000246  -0.000395  -0.000000  -0.000000  -0.000000   0.008697
    31  H    0.000743   0.000936  -0.000000  -0.000004   0.000091  -0.037703
    32  H    0.003197   0.000187   0.000000   0.000000   0.000017   0.016485
    33  H    0.278125   0.007285   0.000000  -0.000000   0.000000  -0.001282
               7          8          9         10         11         12
     1  O   -0.125735  -0.000000  -0.000000  -0.000015  -0.000010  -0.000416
     2  O   -0.114393  -0.000009  -0.000038   0.000417  -0.000316  -0.001008
     3  C    0.000026   0.157579   0.164779  -0.019673  -0.019100   0.003614
     4  C   -0.000322  -0.017148  -0.035880  -0.033815  -0.032480  -0.002312
     5  C    0.000705  -0.002504   0.004296   0.235038   0.253681   0.099978
     6  C    0.052337  -0.000672  -0.000242   0.094993   0.087845   0.230800
     7  C    5.699157   0.000022   0.000058  -0.007336   0.003386  -0.022947
     8  C    0.000022   5.100992  -0.044587  -0.002060  -0.022532   0.001125
     9  C    0.000058  -0.044587   5.112145  -0.018310   0.000684   0.004755
    10  C   -0.007336  -0.002060  -0.018310   5.340094   0.033350   0.245139
    11  C    0.003386  -0.022532   0.000684   0.033350   5.314774  -0.087973
    12  C   -0.022947   0.001125   0.004755   0.245139  -0.087973   5.289615
    13  C   -0.099672   0.005660   0.000174  -0.066018   0.294513   0.001688
    14  C    0.188440   0.000001   0.000000   0.004013  -0.000442  -0.024767
    15  C    0.179250  -0.000010  -0.000013   0.010020   0.000515  -0.061910
    16  H    0.000000  -0.060301  -0.058666   0.000006   0.000332   0.000075
    17  H   -0.000019   0.007101  -0.011275  -0.003231   0.005830   0.000749
    18  H   -0.000009  -0.008640   0.008115   0.008764  -0.000983  -0.001864
    19  H    0.455431   0.000001   0.000001  -0.001551   0.000582   0.019176
    20  H    0.000054   0.397615  -0.010959  -0.000286  -0.019342   0.000994
    21  H   -0.000002   0.426969   0.010659   0.000384   0.003747  -0.000236
    22  H   -0.000001   0.410848  -0.006530  -0.000224   0.001332  -0.000008
    23  H   -0.000000  -0.006003   0.411407   0.001050  -0.000267  -0.000001
    24  H    0.000025  -0.010797   0.398442  -0.018974   0.001307   0.003913
    25  H   -0.000003   0.010521   0.423622   0.002277  -0.000521  -0.000088
    26  H   -0.000303   0.000309  -0.003291   0.456614   0.009409  -0.039609
    27  H   -0.000424  -0.002030   0.000276   0.012777   0.464563  -0.005401
    28  H    0.012162   0.000007   0.000041  -0.032627  -0.003288   0.433406
    29  H   -0.011225   0.000035  -0.000000  -0.006355  -0.050335   0.021051
    30  H   -0.060009   0.000000   0.000000  -0.000262  -0.000503  -0.007267
    31  H    0.008590  -0.000000   0.000000  -0.000240  -0.000156   0.006399
    32  H   -0.048780  -0.000000  -0.000000  -0.000057   0.000040   0.001511
    33  H    0.016361  -0.000000   0.000000  -0.000001  -0.000003  -0.000242
              13         14         15         16         17         18
     1  O   -0.000762  -0.005461   0.352083   0.000000  -0.000000  -0.000000
     2  O    0.009900  -0.000421   0.535556   0.000000  -0.000000   0.000000
     3  C    0.004380   0.000001   0.000004   0.490553  -0.052416  -0.054286
     4  C   -0.004191  -0.000002   0.000012  -0.099643   0.468714   0.458437
     5  C    0.068472  -0.001056  -0.001537   0.016337  -0.080630  -0.079979
     6  C    0.312767  -0.023044   0.027619   0.000021   0.000031   0.000328
     7  C   -0.099672   0.188440   0.179250   0.000000  -0.000019  -0.000009
     8  C    0.005660   0.000001  -0.000010  -0.060301   0.007101  -0.008640
     9  C    0.000174   0.000000  -0.000013  -0.058666  -0.011275   0.008115
    10  C   -0.066018   0.004013   0.010020   0.000006  -0.003231   0.008764
    11  C    0.294513  -0.000442   0.000515   0.000332   0.005830  -0.000983
    12  C    0.001688  -0.024767  -0.061910   0.000075   0.000749  -0.001864
    13  C    5.144855  -0.005669   0.013268   0.000030  -0.001215   0.000291
    14  C   -0.005669   5.046466  -0.055387  -0.000000  -0.000002  -0.000002
    15  C    0.013268  -0.055387   4.614484   0.000000   0.000002   0.000002
    16  H    0.000030  -0.000000   0.000000   0.655317  -0.001248  -0.002746
    17  H   -0.001215  -0.000002   0.000002  -0.001248   0.564770  -0.016179
    18  H    0.000291  -0.000002   0.000002  -0.002746  -0.016179   0.573461
    19  H    0.003955  -0.045752  -0.042393  -0.000000   0.000000  -0.000000
    20  H    0.004027  -0.000001   0.000011   0.007338  -0.000521   0.001261
    21  H   -0.000563  -0.000000   0.000000  -0.003975   0.000145   0.001071
    22  H   -0.000061   0.000000   0.000000  -0.007943  -0.000174  -0.000493
    23  H    0.000007  -0.000000   0.000000  -0.008119  -0.000431  -0.000251
    24  H    0.000433   0.000001   0.000003   0.007555   0.001779  -0.000597
    25  H   -0.000031   0.000000   0.000000  -0.004361   0.000656   0.000351
    26  H   -0.002803   0.000009   0.000085  -0.000126   0.001181   0.000244
    27  H   -0.048534   0.000025   0.000012  -0.000079   0.000249   0.001681
    28  H    0.009934  -0.006019  -0.005591  -0.000001  -0.000034   0.000008
    29  H    0.422219   0.000079  -0.000616  -0.000002   0.000012  -0.000063
    30  H    0.004730   0.413786   0.009573   0.000000   0.000000   0.000000
    31  H    0.001463   0.390192  -0.011880   0.000000   0.000000   0.000000
    32  H   -0.000885   0.414114  -0.006660   0.000000   0.000000   0.000000
    33  H    0.000025  -0.001034  -0.018235   0.000000   0.000000   0.000000
              19         20         21         22         23         24
     1  O    0.004443   0.000000  -0.000000   0.000000   0.000000   0.000000
     2  O    0.001591   0.000022   0.000000   0.000000   0.000000   0.000106
     3  C   -0.000001  -0.004013  -0.078961  -0.043021  -0.045389  -0.004257
     4  C   -0.000001  -0.031759   0.017037   0.011122   0.012068  -0.033144
     5  C    0.000654   0.017507  -0.015943   0.000155   0.000133   0.017178
     6  C   -0.088991  -0.000793   0.000207  -0.000009  -0.000014  -0.000554
     7  C    0.455431   0.000054  -0.000002  -0.000001  -0.000000   0.000025
     8  C    0.000001   0.397615   0.426969   0.410848  -0.006003  -0.010797
     9  C    0.000001  -0.010959   0.010659  -0.006530   0.411407   0.398442
    10  C   -0.001551  -0.000286   0.000384  -0.000224   0.001050  -0.018974
    11  C    0.000582  -0.019342   0.003747   0.001332  -0.000267   0.001307
    12  C    0.019176   0.000994  -0.000236  -0.000008  -0.000001   0.003913
    13  C    0.003955   0.004027  -0.000563  -0.000061   0.000007   0.000433
    14  C   -0.045752  -0.000001  -0.000000   0.000000  -0.000000   0.000001
    15  C   -0.042393   0.000011   0.000000   0.000000   0.000000   0.000003
    16  H   -0.000000   0.007338  -0.003975  -0.007943  -0.008119   0.007555
    17  H    0.000000  -0.000521   0.000145  -0.000174  -0.000431   0.001779
    18  H   -0.000000   0.001261   0.001071  -0.000493  -0.000251  -0.000597
    19  H    0.589169  -0.000002  -0.000000  -0.000000   0.000000   0.000000
    20  H   -0.000002   0.572537  -0.028898  -0.028354  -0.000309   0.006124
    21  H   -0.000000  -0.028898   0.593954  -0.019039  -0.000285  -0.000319
    22  H   -0.000000  -0.028354  -0.019039   0.576586   0.004590  -0.000316
    23  H    0.000000  -0.000309  -0.000285   0.004590   0.578994  -0.027468
    24  H    0.000000   0.006124  -0.000319  -0.000316  -0.027468   0.567295
    25  H    0.000000  -0.000248  -0.000333  -0.000237  -0.019502  -0.028674
    26  H    0.000002  -0.000068   0.000000  -0.000003   0.000034  -0.003211
    27  H   -0.000088  -0.002180   0.003723   0.000001  -0.000006  -0.000024
    28  H    0.000640   0.000002  -0.000001   0.000000   0.000001   0.000014
    29  H    0.009132   0.000020  -0.000040  -0.000000   0.000000  -0.000000
    30  H   -0.005539  -0.000000   0.000000  -0.000000   0.000000  -0.000000
    31  H    0.006693   0.000000   0.000000   0.000000  -0.000000   0.000000
    32  H   -0.006098  -0.000000   0.000000  -0.000000  -0.000000   0.000000
    33  H   -0.000934  -0.000000   0.000000  -0.000000   0.000000  -0.000000
              25         26         27         28         29         30
     1  O    0.000000   0.000000  -0.000000  -0.000378  -0.000022   0.000246
     2  O    0.000000   0.000016  -0.000004   0.003181   0.000392  -0.000395
     3  C   -0.077098  -0.003163  -0.003054   0.000011  -0.000009  -0.000000
     4  C    0.018552   0.003482   0.003051  -0.000299  -0.000155  -0.000000
     5  C   -0.013208  -0.086055  -0.089612   0.013208   0.015794  -0.000000
     6  C    0.000021   0.012757   0.016005  -0.082154  -0.060710   0.008697
     7  C   -0.000003  -0.000303  -0.000424   0.012162  -0.011225  -0.060009
     8  C    0.010521   0.000309  -0.002030   0.000007   0.000035   0.000000
     9  C    0.423622  -0.003291   0.000276   0.000041  -0.000000   0.000000
    10  C    0.002277   0.456614   0.012777  -0.032627  -0.006355  -0.000262
    11  C   -0.000521   0.009409   0.464563  -0.003288  -0.050335  -0.000503
    12  C   -0.000088  -0.039609  -0.005401   0.433406   0.021051  -0.007267
    13  C   -0.000031  -0.002803  -0.048534   0.009934   0.422219   0.004730
    14  C    0.000000   0.000009   0.000025  -0.006019   0.000079   0.413786
    15  C    0.000000   0.000085   0.000012  -0.005591  -0.000616   0.009573
    16  H   -0.004361  -0.000126  -0.000079  -0.000001  -0.000002   0.000000
    17  H    0.000656   0.001181   0.000249  -0.000034   0.000012   0.000000
    18  H    0.000351   0.000244   0.001681   0.000008  -0.000063   0.000000
    19  H    0.000000   0.000002  -0.000088   0.000640   0.009132  -0.005539
    20  H   -0.000248  -0.000068  -0.002180   0.000002   0.000020  -0.000000
    21  H   -0.000333   0.000000   0.003723  -0.000001  -0.000040   0.000000
    22  H   -0.000237  -0.000003   0.000001   0.000000  -0.000000  -0.000000
    23  H   -0.019502   0.000034  -0.000006   0.000001   0.000000   0.000000
    24  H   -0.028674  -0.003211  -0.000024   0.000014  -0.000000  -0.000000
    25  H    0.595375   0.002499  -0.000012  -0.000011   0.000000  -0.000000
    26  H    0.002499   0.542753   0.000017  -0.004170   0.000039   0.000014
    27  H   -0.000012   0.000017   0.548121   0.000028  -0.004889   0.000005
    28  H   -0.000011  -0.004170   0.000028   0.550865   0.000034   0.000431
    29  H    0.000000   0.000039  -0.004889   0.000034   0.576051   0.000304
    30  H   -0.000000   0.000014   0.000005   0.000431   0.000304   0.568989
    31  H    0.000000  -0.000011  -0.000002   0.003373  -0.000001  -0.025208
    32  H    0.000000  -0.000002  -0.000000  -0.000058  -0.000065  -0.021235
    33  H    0.000000   0.000000   0.000000   0.000002  -0.000003   0.000094
              31         32         33
     1  O    0.000743   0.003197   0.278125
     2  O    0.000936   0.000187   0.007285
     3  C   -0.000000   0.000000   0.000000
     4  C   -0.000004   0.000000  -0.000000
     5  C    0.000091   0.000017   0.000000
     6  C   -0.037703   0.016485  -0.001282
     7  C    0.008590  -0.048780   0.016361
     8  C   -0.000000  -0.000000  -0.000000
     9  C    0.000000  -0.000000   0.000000
    10  C   -0.000240  -0.000057  -0.000001
    11  C   -0.000156   0.000040  -0.000003
    12  C    0.006399   0.001511  -0.000242
    13  C    0.001463  -0.000885   0.000025
    14  C    0.390192   0.414114  -0.001034
    15  C   -0.011880  -0.006660  -0.018235
    16  H    0.000000   0.000000   0.000000
    17  H    0.000000   0.000000   0.000000
    18  H    0.000000   0.000000   0.000000
    19  H    0.006693  -0.006098  -0.000934
    20  H    0.000000  -0.000000  -0.000000
    21  H    0.000000   0.000000   0.000000
    22  H    0.000000  -0.000000  -0.000000
    23  H   -0.000000  -0.000000   0.000000
    24  H    0.000000   0.000000  -0.000000
    25  H    0.000000   0.000000   0.000000
    26  H   -0.000011  -0.000002   0.000000
    27  H   -0.000002  -0.000000   0.000000
    28  H    0.003373  -0.000058   0.000002
    29  H   -0.000001  -0.000065  -0.000003
    30  H   -0.025208  -0.021235   0.000094
    31  H    0.582351  -0.026526  -0.000273
    32  H   -0.026526   0.555316  -0.000041
    33  H   -0.000273  -0.000041   0.373152
 Mulliken charges:
               1
     1  O   -0.448772
     2  O   -0.411516
     3  C    0.041570
     4  C   -0.263500
     5  C    0.186162
     6  C    0.068373
     7  C   -0.124823
     8  C   -0.341493
     9  C   -0.349661
    10  C   -0.233901
    11  C   -0.237639
    12  C   -0.107939
    13  C   -0.072387
    14  C   -0.288068
    15  C    0.461732
    16  H    0.069647
    17  H    0.116157
    18  H    0.112077
    19  H    0.099881
    20  H    0.120218
    21  H    0.090698
    22  H    0.101780
    23  H    0.099760
    24  H    0.124158
    25  H    0.090450
    26  H    0.113349
    27  H    0.105804
    28  H    0.107285
    29  H    0.089328
    30  H    0.113550
    31  H    0.101175
    32  H    0.119540
    33  H    0.347004
 Sum of Mulliken charges =  -0.00000
 Mulliken charges with hydrogens summed into heavy atoms:
               1
     1  O   -0.101769
     2  O   -0.411516
     3  C    0.111218
     4  C   -0.035266
     5  C    0.186162
     6  C    0.068373
     7  C   -0.024942
     8  C   -0.028796
     9  C   -0.035292
    10  C   -0.120552
    11  C   -0.131835
    12  C   -0.000654
    13  C    0.016941
    14  C    0.046197
    15  C    0.461732
 Electronic spatial extent (au):  <R**2>=           4279.2786
 Charge=             -0.0000 electrons
 Dipole moment (field-independent basis, Debye):
    X=              0.9368    Y=             -0.9755    Z=              0.1058  Tot=              1.3567
 Quadrupole moment (field-independent basis, Debye-Ang):
   XX=            -78.7715   YY=            -94.1447   ZZ=            -88.4172
   XY=              2.6788   XZ=              0.7951   YZ=             -1.7505
 Traceless Quadrupole moment (field-independent basis, Debye-Ang):
   XX=              8.3397   YY=             -7.0336   ZZ=             -1.3060
   XY=              2.6788   XZ=              0.7951   YZ=             -1.7505
 Octapole moment (field-independent basis, Debye-Ang**2):
  XXX=             68.4857  YYY=             13.4169  ZZZ=              0.1196  XYY=             22.8519
  XXY=             32.1138  XXZ=              3.1187  XZZ=             13.0326  YZZ=              2.8206
  YYZ=              7.8850  XYZ=              3.4595
 Hexadecapole moment (field-independent basis, Debye-Ang**3):
 XXXX=          -4159.6078 YYYY=           -765.7286 ZZZZ=           -541.7537 XXXY=            227.1279
 XXXZ=             22.7576 YYYX=             64.5547 YYYZ=              5.9290 ZZZX=             20.6060
 ZZZY=            -11.7548 XXYY=           -757.6713 XXZZ=           -824.4034 YYZZ=           -214.8014
 XXYZ=             20.7207 YYXZ=              8.2105 ZZXY=             20.8847
 N-N= 9.855016642170D+02 E-N=-3.499739591948D+03  KE= 6.530358942525D+02
 Unable to Open any file for archive entry.
 1\1\GINC-NODE12\SP\RM06\def2TZVP\C13H18O2\RPATON\13-Feb-2026\0\\# geom
 =check guess=read M06/def2TZVP emp=GD3\\M06 zero-damped\\0,1\O,0,-4.44
 57,-1.0032,0.4113\O,0,-2.4005,-1.9114,0.0531\C,0,3.9024,-0.4411,0.0362
 \C,0,3.1486,0.8194,-0.4313\C,0,1.6528,0.7393,-0.2472\C,0,-1.0946,0.593
 5,0.0901\C,0,-2.5728,0.5152,0.2719\C,0,3.6076,-0.776,1.5005\C,0,3.5239
 ,-1.6299,-0.8505\C,0,0.869,0.2281,-1.2695\C,0,1.0897,1.1791,0.9405\C,0
 ,-0.5135,0.1549,-1.0998\C,0,-0.2929,1.1057,1.1102\C,0,-3.3736,1.3495,-
 0.7486\C,0,-3.1004,-0.9233,0.2332\H,0,4.9775,-0.2527,-0.0735\H,0,3.378
 9,1.0242,-1.4854\H,0,3.5298,1.6907,0.1182\H,0,-2.8243,0.8896,1.2739\H,
 0,2.5794,-1.1167,1.6574\H,0,3.7958,0.0879,2.1462\H,0,4.2658,-1.5849,1.
 8375\H,0,4.1778,-2.4814,-0.6301\H,0,2.4964,-1.9688,-0.6863\H,0,3.6494,
 -1.3895,-1.9115\H,0,1.3084,-0.1099,-2.2035\H,0,1.7024,1.5855,1.7398\H,
 0,-1.1208,-0.2449,-1.9075\H,0,-0.729,1.4534,2.043\H,0,-3.0012,2.3792,-
 0.784\H,0,-3.3032,0.9294,-1.7582\H,0,-4.4357,1.3895,-0.4835\H,0,-4.763
 9,-1.9305,0.3782\\Version=AS64L-G16RevC.01\State=1-A\HF=-656.4787239\R
 MSD=6.522e-09\Dipole=-0.3633668,0.3875904,0.05127\Quadrupole=6.2628048
 ,-5.3633347,-0.8994701,1.8338202,-0.461159,1.1840206\PG=C01 [X(C13H18O
 2)]\\@
 The archive entry for this job was punched.


 ACCORDING TO HEN3RY, LIFE IS MUCH LIKE A SEWER........
 YOU GET OUT OF IT JUST WHAT YOU PUT INTO IT...........
                         TOM LEHRER - (THE 3 IS SILENT)
 Job cpu time:       0 days  0 hours 43 minutes 51.4 seconds.
 Elapsed time:       0 days  0 hours  2 minutes 53.3 seconds.
 File lengths (MBytes):  RWF=    175 Int=      0 D2E=      0 Chk=     21 Scr=      1
 Normal termination of Gaussian 16 at Fri Feb 13 22:24:31 2026.
 Initial command:
 /opt/apps/Gaussian/G16C/g16/l1.exe "/tmp/781375/Gau-1544398.inp" -scrdir="/tmp/781375/"
 Entering Link 1 = /opt/apps/Gaussian/G16C/g16/l1.exe PID=   1545310.
  
 Copyright (c) 1988-2019, Gaussian, Inc.  All Rights Reserved.
  
 This is part of the Gaussian(R) 16 program.  It is based on
 the Gaussian(R) 09 system (copyright 2009, Gaussian, Inc.),
 the Gaussian(R) 03 system (copyright 2003, Gaussian, Inc.),
 the Gaussian(R) 98 system (copyright 1998, Gaussian, Inc.),
 the Gaussian(R) 94 system (copyright 1995, Gaussian, Inc.),
 the Gaussian 92(TM) system (copyright 1992, Gaussian, Inc.),
 the Gaussian 90(TM) system (copyright 1990, Gaussian, Inc.),
 the Gaussian 88(TM) system (copyright 1988, Gaussian, Inc.),
 the Gaussian 86(TM) system (copyright 1986, Carnegie Mellon
 University), and the Gaussian 82(TM) system (copyright 1983,
 Carnegie Mellon University). Gaussian is a federally registered
 trademark of Gaussian, Inc.
  
 This software contains proprietary and confidential information,
 including trade secrets, belonging to Gaussian, Inc.
  
 This software is provided under written license and may be
 used, copied, transmitted, or stored only in accord with that
 written license.
  
 The following legend is applicable only to US Government
 contracts under FAR:
  
                    RESTRICTED RIGHTS LEGEND
  
 Use, reproduction and disclosure by the US Government is
 subject to restrictions as set forth in subparagraphs (a)
 and (c) of the Commercial Computer Software - Restricted
 Rights clause in FAR 52.227-19.
  
 Gaussian, Inc.
 340 Quinnipiac St., Bldg. 40, Wallingford CT 06492
  
  
 ---------------------------------------------------------------
 Warning -- This program may not be used in any manner that
 competes with the business of Gaussian, Inc. or will provide
 assistance to any competitor of Gaussian, Inc.  The licensee
 of this program is prohibited from giving any competitor of
 Gaussian, Inc. access to this program.  By using this program,
 the user acknowledges that Gaussian, Inc. is engaged in the
 business of creating and licensing software in the field of
 computational chemistry and represents and warrants to the
 licensee that it is not a competitor of Gaussian, Inc. and that
 it will not use this program in any manner prohibited above.
 ---------------------------------------------------------------
  

 Cite this work as:
 Gaussian 16, Revision C.01,
 M. J. Frisch, G. W. Trucks, H. B. Schlegel, G. E. Scuseria, 
 M. A. Robb, J. R. Cheeseman, G. Scalmani, V. Barone, 
 G. A. Petersson, H. Nakatsuji, X. Li, M. Caricato, A. V. Marenich, 
 J. Bloino, B. G. Janesko, R. Gomperts, B. Mennucci, H. P. Hratchian, 
 J. V. Ortiz, A. F. Izmaylov, J. L. Sonnenberg, D. Williams-Young, 
 F. Ding, F. Lipparini, F. Egidi, J. Goings, B. Peng, A. Petrone, 
 T. Henderson, D. Ranasinghe, V. G. Zakrzewski, J. Gao, N. Rega, 
 G. Zheng, W. Liang, M. Hada, M. Ehara, K. Toyota, R. Fukuda, 
 J. Hasegawa, M. Ishida, T. Nakajima, Y. Honda, O. Kitao, H. Nakai, 
 T. Vreven, K. Throssell, J. A. Montgomery, Jr., J. E. Peralta, 
 F. Ogliaro, M. J. Bearpark, J. J. Heyd, E. N. Brothers, K. N. Kudin, 
 V. N. Staroverov, T. A. Keith, R. Kobayashi, J. Normand, 
 K. Raghavachari, A. P. Rendell, J. C. Burant, S. S. Iyengar, 
 J. Tomasi, M. Cossi, J. M. Millam, M. Klene, C. Adamo, R. Cammi, 
 J. W. Ochterski, R. L. Martin, K. Morokuma, O. Farkas, 
 J. B. Foresman, and D. J. Fox, Gaussian, Inc., Wallingford CT, 2019.
 
 ******************************************
 Gaussian 16:  AS64L-G16RevC.01  3-Jul-2019
                13-Feb-2026 
 ******************************************
 %chk=ibuprofen.chk
 %nproc=16
 Will use up to   16 processors via shared memory.
 %mem=96GB
 -------------------------------------------------
 # geom=check guess=read PBEPBE/def2TZVP emp=GD3BJ
 -------------------------------------------------
 1/29=2,38=1,172=1/1;
 2/12=2,40=1/2;
 3/5=44,7=101,11=2,14=-4,25=1,30=1,74=1009,116=-2,124=41/1,2,3;
 4/5=1/1;
 5/5=2,38=6/2;
 6/7=2,8=2,9=2,10=2,28=1/1;
 99/5=1,9=1/99;
 -------------------------
 PBE0 Becke-Johnson damped
 -------------------------
 Structure from the checkpoint file:  "ibuprofen.chk"
 Charge =  0 Multiplicity = 1
 Z-Matrix found in chk file.
 O,0,-4.4457,-1.0032,0.4113
 O,0,-2.4005,-1.9114,0.0531
 C,0,3.9024,-0.4411,0.0362
 C,0,3.1486,0.8194,-0.4313
 C,0,1.6528,0.7393,-0.2472
 C,0,-1.0946,0.5935,0.0901
 C,0,-2.5728,0.5152,0.2719
 C,0,3.6076,-0.776,1.5005
 C,0,3.5239,-1.6299,-0.8505
 C,0,0.869,0.2281,-1.2695
 C,0,1.0897,1.1791,0.9405
 C,0,-0.5135,0.1549,-1.0998
 C,0,-0.2929,1.1057,1.1102
 C,0,-3.3736,1.3495,-0.7486
 C,0,-3.1004,-0.9233,0.2332
 H,0,4.9775,-0.2527,-0.0735
 H,0,3.3789,1.0242,-1.4854
 H,0,3.5298,1.6907,0.1182
 H,0,-2.8243,0.8896,1.2739
 H,0,2.5794,-1.1167,1.6574
 H,0,3.7958,0.0879,2.1462
 H,0,4.2658,-1.5849,1.8375
 H,0,4.1778,-2.4814,-0.6301
 H,0,2.4964,-1.9688,-0.6863
 H,0,3.6494,-1.3895,-1.9115
 H,0,1.3084,-0.1099,-2.2035
 H,0,1.7024,1.5855,1.7398
 H,0,-1.1208,-0.2449,-1.9075
 H,0,-0.729,1.4534,2.043
 H,0,-3.0012,2.3792,-0.784
 H,0,-3.3032,0.9294,-1.7582
 H,0,-4.4357,1.3895,-0.4835
 H,0,-4.7639,-1.9305,0.3782
 Recover connectivity data from disk.
                          Input orientation:                          
 ---------------------------------------------------------------------
 Center     Atomic      Atomic             Coordinates (Angstroms)
 Number     Number       Type             X           Y           Z
 ---------------------------------------------------------------------
      1          8           0       -4.445700   -1.003200    0.411300
      2          8           0       -2.400500   -1.911400    0.053100
      3          6           0        3.902400   -0.441100    0.036200
      4          6           0        3.148600    0.819400   -0.431300
      5          6           0        1.652800    0.739300   -0.247200
      6          6           0       -1.094600    0.593500    0.090100
      7          6           0       -2.572800    0.515200    0.271900
      8          6           0        3.607600   -0.776000    1.500500
      9          6           0        3.523900   -1.629900   -0.850500
     10          6           0        0.869000    0.228100   -1.269500
     11          6           0        1.089700    1.179100    0.940500
     12          6           0       -0.513500    0.154900   -1.099800
     13          6           0       -0.292900    1.105700    1.110200
     14          6           0       -3.373600    1.349500   -0.748600
     15          6           0       -3.100400   -0.923300    0.233200
     16          1           0        4.977500   -0.252700   -0.073500
     17          1           0        3.378900    1.024200   -1.485400
     18          1           0        3.529800    1.690700    0.118200
     19          1           0       -2.824300    0.889600    1.273900
     20          1           0        2.579400   -1.116700    1.657400
     21          1           0        3.795800    0.087900    2.146200
     22          1           0        4.265800   -1.584900    1.837500
     23          1           0        4.177800   -2.481400   -0.630100
     24          1           0        2.496400   -1.968800   -0.686300
     25          1           0        3.649400   -1.389500   -1.911500
     26          1           0        1.308400   -0.109900   -2.203500
     27          1           0        1.702400    1.585500    1.739800
     28          1           0       -1.120800   -0.244900   -1.907500
     29          1           0       -0.729000    1.453400    2.043000
     30          1           0       -3.001200    2.379200   -0.784000
     31          1           0       -3.303200    0.929400   -1.758200
     32          1           0       -4.435700    1.389500   -0.483500
     33          1           0       -4.763900   -1.930500    0.378200
 ---------------------------------------------------------------------
                    Distance matrix (angstroms):
                    1          2          3          4          5
     1  O    0.000000
     2  O    2.266270   0.000000
     3  C    8.375406   6.472142   0.000000
     4  C    7.855268   6.203581   1.541308   0.000000
     5  C    6.376647   4.852384   2.556239   1.509214   0.000000
     6  C    3.725922   2.825114   5.103265   4.281079   2.771865
     7  C    2.415104   2.442529   6.549678   5.772473   4.263259
     8  C    8.129798   6.283420   1.530764   2.547123   3.028503
     9  C    8.093171   5.999521   1.530603   2.513096   3.078651
    10  C    5.708522   4.125089   3.369599   2.499758   1.385917
    11  C    5.973537   4.745542   3.369583   2.500058   1.386051
    12  C    4.368846   3.026474   4.598465   3.781459   2.400272
    13  C    4.709742   3.829142   4.598544   3.781813   2.400527
    14  C    2.833719   3.496157   7.534078   6.551395   5.088069
    15  C    1.359388   1.224189   7.022146   6.521393   5.058452
    16  H    9.465462   7.563213   1.096982   2.149952   3.473883
    17  H    8.302541   6.662296   2.176332   1.098229   2.143298
    18  H    8.423278   6.938863   2.165670   1.098375   2.135839
    19  H    2.637368   3.084730   6.967866   6.211938   4.730831
    20  H    7.135662   5.291950   2.198876   2.904331   2.816172
    21  H    8.492508   6.839035   2.177913   2.756350   3.277977
    22  H    8.846618   6.908708   2.164491   3.489448   4.071320
    23  H    8.811035   6.638200   2.163937   3.463243   4.110371
    24  H    7.094354   4.952740   2.198342   2.874795   2.870240
    25  H    8.430615   6.382266   2.181056   2.705741   3.359776
    26  H    6.383168   4.700381   3.443078   2.718571   2.160292
    27  H    6.801868   5.648633   3.442290   2.718838   2.160251
    28  H    4.123932   2.873814   5.389713   4.641086   3.379068
    29  H    4.744596   4.251528   5.391312   4.643264   3.380522
    30  H    3.867293   4.412576   7.502434   6.354322   4.963582
    31  H    3.122015   3.487954   7.551080   6.587753   5.184708
    32  H    2.554561   3.914833   8.552491   7.605876   6.127677
    33  H    0.980934   2.385731   8.800002   8.415753   6.978037
                    6          7          8          9         10
     6  C    0.000000
     7  C    1.491394   0.000000
     8  C    5.096611   6.432262   0.000000
     9  C    5.211408   6.559801   2.502669   0.000000
    10  C    2.416145   3.782106   4.022567   3.267448   0.000000
    11  C    2.416045   3.781758   3.236640   4.125953   2.416032
    12  C    1.394958   2.500419   4.961008   4.421341   1.394798
    13  C    1.394875   2.499876   4.348221   5.088793   2.789833
    14  C    2.543383   1.542322   7.636318   7.514168   4.419110
    15  C    2.518808   1.532691   6.828251   6.749447   4.397723
    16  H    6.132962   7.597105   2.151266   2.147874   4.305968
    17  H    4.762342   6.226549   3.494084   2.732832   2.641966
    18  H    4.752864   6.216683   2.828677   3.459017   3.338378
    19  H    2.116818   1.098832   6.647925   7.152664   4.532872
    20  H    4.345053   5.579236   1.094481   2.728556   3.647012
    21  H    5.329089   6.652417   1.094838   3.464820   4.500313
    22  H    6.044230   7.323112   1.095954   2.788868   4.947592
    23  H    6.145885   7.440687   2.788005   1.095999   4.324162
    24  H    4.479225   5.725835   2.727569   1.094336   2.795518
    25  H    5.517629   6.863737   3.466969   1.095109   3.280155
    26  H    3.395553   4.645651   4.410173   3.008230   1.086127
    27  H    3.395406   4.645170   3.043638   4.512905   3.404846
    28  H    2.166566   2.726874   5.852717   4.960717   2.142447
    29  H    2.164927   2.723346   4.906183   5.997186   3.876547
    30  H    2.754614   2.184708   7.671406   7.658605   4.454367
    31  H    2.899475   2.196896   7.828580   7.347328   4.258862
    32  H    3.482181   2.192128   8.562729   8.520956   5.486938
    33  H    4.462885   3.285372   8.524930   8.383776   6.253322
                   11         12         13         14         15
    11  C    0.000000
    12  C    2.789634   0.000000
    13  C    1.394908   2.415944   0.000000
    14  C    4.775264   3.119388   3.606285   0.000000
    15  C    4.741023   3.103459   3.573238   2.490821   0.000000
    16  H    4.265353   5.600938   5.569875   8.530163   8.111488
    17  H    3.339075   4.006888   4.497321   6.800364   6.980521
    18  H    2.625262   4.493382   3.992408   6.965967   7.127817
    19  H    3.938827   3.393233   2.545876   2.145634   2.108529
    20  H    2.829108   4.334184   3.672683   6.878167   5.858829
    21  H    3.157120   5.395468   4.338972   7.834015   7.227701
    22  H    4.304871   5.873359   5.343224   8.582485   7.567853
    23  H    5.040080   5.401758   5.990249   8.468381   7.493007
    24  H    3.812421   3.706829   4.523291   6.743285   5.767384
    25  H    4.613423   4.513731   5.558635   7.627384   7.097667
    26  H    3.405009   2.146530   3.875881   5.115438   5.102611
    27  H    1.086022   3.875585   2.146585   5.658057   5.624127
    28  H    3.876234   1.086753   3.408233   2.993371   2.993600
    29  H    2.144392   3.407306   1.086828   3.846782   3.814134
    30  H    4.598870   3.351998   3.541848   1.095544   3.457028
    31  H    5.161676   2.969136   4.161815   1.095779   2.727508
    32  H    5.709824   4.157850   4.447833   1.095415   2.765091
    33  H    6.652099   4.959766   5.453822   3.736444   1.950054
                   16         17         18         19         20
    16  H    0.000000
    17  H    2.485851   0.000000
    18  H    2.430923   1.743137   0.000000
    19  H    7.999276   6.790548   6.507841   0.000000
    20  H    3.081135   3.885852   3.339744   5.776875   0.000000
    21  H    2.537615   3.773458   2.598559   6.725277   1.780341
    22  H    2.435815   4.316904   3.771902   7.530625   1.759430
    23  H    2.432371   3.695810   4.287922   8.001141   3.106436
    24  H    3.078373   3.221089   3.886782   6.350014   2.495174
    25  H    2.536613   2.465903   3.690748   7.566364   3.735822
    26  H    4.244948   2.467554   3.683350   5.492770   4.187557
    27  H    4.170529   3.677992   2.445413   4.603515   2.842148
    28  H    6.368114   4.694261   5.429373   3.782897   5.211528
    29  H    6.320957   5.432188   4.679588   2.302101   4.207091
    30  H    8.431569   6.560005   6.628873   2.546597   7.023165
    31  H    8.532618   6.688338   7.126734   3.069945   7.103368
    32  H    9.564165   7.887029   7.993870   2.436178   7.750879
    33  H    9.895146   8.860499   9.053516   3.537978   7.498178
                   21         22         23         24         25
    21  H    0.000000
    22  H    1.764782   0.000000
    23  H    3.801982   2.626881   0.000000
    24  H    3.733833   3.106078   1.758699   0.000000
    25  H    4.320772   3.804357   1.764494   1.779357   0.000000
    26  H    5.014596   5.220299   4.041418   2.677452   2.683826
    27  H    2.605819   4.078235   5.318243   4.376008   5.096413
    28  H    6.380924   6.695975   5.891421   4.188949   4.905602
    29  H    4.727479   5.849917   6.834091   5.437254   6.549087
    30  H    7.748247   8.683066   8.671053   7.009868   7.726890
    31  H    8.145444   8.748744   8.298887   6.571445   7.330719
    32  H    8.738826   9.484208   9.444456   7.705408   8.667806
    33  H    8.970408   9.153386   9.015218   7.338023   8.736076
                   26         27         28         29         30
    26  H    0.000000
    27  H    4.310363   0.000000
    28  H    2.450888   4.962219   0.000000
    29  H    4.962627   2.453790   4.317891   0.000000
    30  H    5.175254   5.396608   3.418195   3.743251   0.000000
    31  H    4.748188   6.141865   2.482769   4.620628   1.772622
    32  H    6.180719   6.531290   3.960758   4.486303   1.768501
    33  H    6.844895   7.485269   4.619291   5.522930   4.799097
                   31         32         33
    31  H    0.000000
    32  H    1.766100   0.000000
    33  H    3.857056   3.445670   0.000000
 Stoichiometry    C13H18O2
 Framework group  C1[X(C13H18O2)]
 Deg. of freedom    93
 Full point group                 C1      NOp   1
 Largest Abelian subgroup         C1      NOp   1
 Largest concise Abelian subgroup C1      NOp   1
                         Standard orientation:                         
 ---------------------------------------------------------------------
 Center     Atomic      Atomic             Coordinates (Angstroms)
 Number     Number       Type             X           Y           Z
 ---------------------------------------------------------------------
      1          8           0        4.446257    1.004235    0.472515
      2          8           0        2.390657    1.894151    0.128229
      3          6           0       -3.890036    0.335498    0.018170
      4          6           0       -3.114854   -0.898615   -0.483514
      5          6           0       -1.621680   -0.803117   -0.285931
      6          6           0        1.120921   -0.629006    0.076092
      7          6           0        2.596538   -0.535484    0.271189
      8          6           0       -3.610259    0.627782    1.494495
      9          6           0       -3.522651    1.557193   -0.827546
     10          6           0       -0.838302   -0.248520   -1.285684
     11          6           0       -1.060511   -1.272435    0.891339
     12          6           0        0.541786   -0.161073   -1.103549
     13          6           0        0.319674   -1.184787    1.073482
     14          6           0        3.416375   -1.325384   -0.769332
     15          6           0        3.103520    0.910889    0.282046
     16          1           0       -4.961512    0.135390   -0.105384
     17          1           0       -3.334862   -1.073017   -1.545253
     18          1           0       -3.487200   -1.792307    0.035235
     19          1           0        2.846487   -0.937970    1.262633
     20          1           0       -2.588209    0.977927    1.669710
     21          1           0       -3.790403   -0.258828    2.111052
     22          1           0       -4.282414    1.416086    1.852124
     23          1           0       -4.190316    2.391844   -0.585071
     24          1           0       -2.501324    1.905296   -0.645097
     25          1           0       -3.637309    1.348926   -1.896537
     26          1           0       -1.276070    0.112747   -2.211706
     27          1           0       -1.672785   -1.712760    1.672798
     28          1           0        1.148814    0.272846   -1.893652
     29          1           0        0.754291   -1.555757    1.997973
     30          1           0        3.059170   -2.358635   -0.840133
     31          1           0        3.346894   -0.874404   -1.765586
     32          1           0        4.477082   -1.358669   -0.497803
     33          1           0        4.751225    1.936557    0.471204
 ---------------------------------------------------------------------
 Rotational constants (GHZ):           1.3038705           0.2852066           0.2712529
 Standard basis: def2TZVP (5D, 7F)
 There are   648 symmetry adapted cartesian basis functions of A   symmetry.
 There are   573 symmetry adapted basis functions of A   symmetry.
   573 basis functions,   909 primitive gaussians,   648 cartesian basis functions
    56 alpha electrons       56 beta electrons
       nuclear repulsion energy       985.5069704769 Hartrees.
 NAtoms=   33 NActive=   33 NUniq=   33 SFac= 1.00D+00 NAtFMM=   60 NAOKFM=F Big=F
 Integral buffers will be    131072 words long.
 Raffenetti 2 integral format.
 Two-electron integral symmetry is turned on.
 Nuclear repulsion after empirical dispersion term =      985.4687062452 Hartrees.
 One-electron integrals computed using PRISM.
   1 Symmetry operations used in ECPInt.
 ECPInt:  NShTT=   28203 NPrTT=   83820 LenC2=   25425 LenP2D=   56184.
 LDataN:  DoStor=T MaxTD1= 6 Len=  172
 NBasis=   573 RedAO= T EigKep=  6.39D-06  NBF=   573
 NBsUse=   573 1.00D-06 EigRej= -1.00D+00 NBFU=   573
 Initial guess from the checkpoint file:  "ibuprofen.chk"
 B after Tr=     0.000000    0.000000   -0.000000
         Rot=    1.000000    0.000000    0.000000    0.000000 Ang=   0.00 deg.
 Requested convergence on RMS density matrix=1.00D-08 within 128 cycles.
 Requested convergence on MAX density matrix=1.00D-06.
 Requested convergence on             energy=1.00D-06.
 No special actions if energy rises.
 SCF Done:  E(RPBE-PBE) =  -656.139645483     A.U. after   12 cycles
            NFock= 12  Conv=0.57D-08     -V/T= 2.0044

 **********************************************************************

            Population analysis using the SCF Density.

 **********************************************************************

 Orbital symmetries:
       Occupied  (A) (A) (A) (A) (A) (A) (A) (A) (A) (A) (A) (A)
                 (A) (A) (A) (A) (A) (A) (A) (A) (A) (A) (A) (A)
                 (A) (A) (A) (A) (A) (A) (A) (A) (A) (A) (A) (A)
                 (A) (A) (A) (A) (A) (A) (A) (A) (A) (A) (A) (A)
                 (A) (A) (A) (A) (A) (A) (A) (A)
       Virtual   (A) (A) (A) (A) (A) (A) (A) (A) (A) (A) (A) (A)
                 (A) (A) (A) (A) (A) (A) (A) (A) (A) (A) (A) (A)
                 (A) (A) (A) (A) (A) (A) (A) (A) (A) (A) (A) (A)
                 (A) (A) (A) (A) (A) (A) (A) (A) (A) (A) (A) (A)
                 (A) (A) (A) (A) (A) (A) (A) (A) (A) (A) (A) (A)
                 (A) (A) (A) (A) (A) (A) (A) (A) (A) (A) (A) (A)
                 (A) (A) (A) (A) (A) (A) (A) (A) (A) (A) (A) (A)
                 (A) (A) (A) (A) (A) (A) (A) (A) (A) (A) (A) (A)
                 (A) (A) (A) (A) (A) (A) (A) (A) (A) (A) (A) (A)
                 (A) (A) (A) (A) (A) (A) (A) (A) (A) (A) (A) (A)
                 (A) (A) (A) (A) (A) (A) (A) (A) (A) (A) (A) (A)
                 (A) (A) (A) (A) (A) (A) (A) (A) (A) (A) (A) (A)
                 (A) (A) (A) (A) (A) (A) (A) (A) (A) (A) (A) (A)
                 (A) (A) (A) (A) (A) (A) (A) (A) (A) (A) (A) (A)
                 (A) (A) (A) (A) (A) (A) (A) (A) (A) (A) (A) (A)
                 (A) (A) (A) (A) (A) (A) (A) (A) (A) (A) (A) (A)
                 (A) (A) (A) (A) (A) (A) (A) (A) (A) (A) (A) (A)
                 (A) (A) (A) (A) (A) (A) (A) (A) (A) (A) (A) (A)
                 (A) (A) (A) (A) (A) (A) (A) (A) (A) (A) (A) (A)
                 (A) (A) (A) (A) (A) (A) (A) (A) (A) (A) (A) (A)
                 (A) (A) (A) (A) (A) (A) (A) (A) (A) (A) (A) (A)
                 (A) (A) (A) (A) (A) (A) (A) (A) (A) (A) (A) (A)
                 (A) (A) (A) (A) (A) (A) (A) (A) (A) (A) (A) (A)
                 (A) (A) (A) (A) (A) (A) (A) (A) (A) (A) (A) (A)
                 (A) (A) (A) (A) (A) (A) (A) (A) (A) (A) (A) (A)
                 (A) (A) (A) (A) (A) (A) (A) (A) (A) (A) (A) (A)
                 (A) (A) (A) (A) (A) (A) (A) (A) (A) (A) (A) (A)
                 (A) (A) (A) (A) (A) (A) (A) (A) (A) (A) (A) (A)
                 (A) (A) (A) (A) (A) (A) (A) (A) (A) (A) (A) (A)
                 (A) (A) (A) (A) (A) (A) (A) (A) (A) (A) (A) (A)
                 (A) (A) (A) (A) (A) (A) (A) (A) (A) (A) (A) (A)
                 (A) (A) (A) (A) (A) (A) (A) (A) (A) (A) (A) (A)
                 (A) (A) (A) (A) (A) (A) (A) (A) (A) (A) (A) (A)
                 (A) (A) (A) (A) (A) (A) (A) (A) (A) (A) (A) (A)
                 (A) (A) (A) (A) (A) (A) (A) (A) (A) (A) (A) (A)
                 (A) (A) (A) (A) (A) (A) (A) (A) (A) (A) (A) (A)
                 (A) (A) (A) (A) (A) (A) (A) (A) (A) (A) (A) (A)
                 (A) (A) (A) (A) (A) (A) (A) (A) (A) (A) (A) (A)
                 (A) (A) (A) (A) (A) (A) (A) (A) (A) (A) (A) (A)
                 (A) (A) (A) (A) (A) (A) (A) (A) (A) (A) (A) (A)
                 (A) (A) (A) (A) (A) (A) (A) (A) (A) (A) (A) (A)
                 (A) (A) (A) (A) (A) (A) (A) (A) (A) (A) (A) (A)
                 (A) (A) (A) (A) (A) (A) (A) (A) (A) (A) (A) (A)
                 (A)
 The electronic state is 1-A.
 Alpha  occ. eigenvalues --  -18.80101 -18.73711 -10.00920  -9.91154  -9.89039
 Alpha  occ. eigenvalues --   -9.88583  -9.88508  -9.88379  -9.88301  -9.88086
 Alpha  occ. eigenvalues --   -9.87900  -9.87842  -9.87609  -9.86317  -9.86184
 Alpha  occ. eigenvalues --   -1.01211  -0.92484  -0.78827  -0.74763  -0.72241
 Alpha  occ. eigenvalues --   -0.67464  -0.67052  -0.61451  -0.61099  -0.60382
 Alpha  occ. eigenvalues --   -0.55852  -0.54833  -0.51558  -0.49631  -0.45195
 Alpha  occ. eigenvalues --   -0.44529  -0.42520  -0.42007  -0.40935  -0.40311
 Alpha  occ. eigenvalues --   -0.40143  -0.38099  -0.37726  -0.37441  -0.36397
 Alpha  occ. eigenvalues --   -0.35884  -0.34558  -0.33317  -0.33054  -0.32484
 Alpha  occ. eigenvalues --   -0.31794  -0.31071  -0.30354  -0.29398  -0.28728
 Alpha  occ. eigenvalues --   -0.28224  -0.28037  -0.27108  -0.23237  -0.22298
 Alpha  occ. eigenvalues --   -0.21295
 Alpha virt. eigenvalues --   -0.04223  -0.03792  -0.03597   0.00460   0.01549
 Alpha virt. eigenvalues --    0.02931   0.03809   0.04845   0.05336   0.05603
 Alpha virt. eigenvalues --    0.06854   0.07700   0.08244   0.08523   0.09232
 Alpha virt. eigenvalues --    0.09267   0.09960   0.10365   0.11290   0.11852
 Alpha virt. eigenvalues --    0.12393   0.13398   0.13947   0.14413   0.14688
 Alpha virt. eigenvalues --    0.15150   0.15838   0.16756   0.17535   0.18355
 Alpha virt. eigenvalues --    0.18521   0.19517   0.19641   0.21165   0.21307
 Alpha virt. eigenvalues --    0.21916   0.22541   0.22902   0.23039   0.23674
 Alpha virt. eigenvalues --    0.24431   0.25534   0.25799   0.26181   0.27449
 Alpha virt. eigenvalues --    0.27826   0.28049   0.28656   0.29881   0.30185
 Alpha virt. eigenvalues --    0.30431   0.31398   0.32766   0.33368   0.33454
 Alpha virt. eigenvalues --    0.33715   0.34716   0.34998   0.35906   0.36426
 Alpha virt. eigenvalues --    0.37137   0.38046   0.38226   0.38662   0.38961
 Alpha virt. eigenvalues --    0.39997   0.40363   0.40562   0.41015   0.41221
 Alpha virt. eigenvalues --    0.41795   0.42027   0.42153   0.42780   0.43321
 Alpha virt. eigenvalues --    0.43530   0.44017   0.44063   0.44725   0.45245
 Alpha virt. eigenvalues --    0.45856   0.46219   0.46607   0.47209   0.47620
 Alpha virt. eigenvalues --    0.48674   0.49134   0.49903   0.50406   0.51375
 Alpha virt. eigenvalues --    0.51979   0.52898   0.54419   0.54746   0.55746
 Alpha virt. eigenvalues --    0.55911   0.56167   0.57891   0.59026   0.60604
 Alpha virt. eigenvalues --    0.61994   0.62712   0.63494   0.64270   0.65277
 Alpha virt. eigenvalues --    0.66130   0.67450   0.68326   0.69286   0.70275
 Alpha virt. eigenvalues --    0.70877   0.71964   0.73070   0.74474   0.75455
 Alpha virt. eigenvalues --    0.75933   0.77705   0.77757   0.79854   0.80143
 Alpha virt. eigenvalues --    0.81109   0.81601   0.82174   0.82721   0.82997
 Alpha virt. eigenvalues --    0.84486   0.85097   0.87358   0.88386   0.89048
 Alpha virt. eigenvalues --    0.89920   0.91243   0.92511   0.93346   0.93493
 Alpha virt. eigenvalues --    0.94403   0.95914   0.96741   0.97830   0.98399
 Alpha virt. eigenvalues --    1.00853   1.02242   1.02724   1.03040   1.03765
 Alpha virt. eigenvalues --    1.05583   1.05798   1.06804   1.07617   1.08660
 Alpha virt. eigenvalues --    1.08959   1.11362   1.12315   1.12885   1.14931
 Alpha virt. eigenvalues --    1.15302   1.16759   1.18070   1.18486   1.19524
 Alpha virt. eigenvalues --    1.21447   1.21664   1.22966   1.24079   1.24728
 Alpha virt. eigenvalues --    1.25758   1.26961   1.27621   1.28920   1.30472
 Alpha virt. eigenvalues --    1.31376   1.32633   1.34777   1.36053   1.36195
 Alpha virt. eigenvalues --    1.38158   1.39582   1.41633   1.42787   1.43906
 Alpha virt. eigenvalues --    1.44335   1.45798   1.46563   1.47046   1.48225
 Alpha virt. eigenvalues --    1.48717   1.49199   1.49576   1.50378   1.50881
 Alpha virt. eigenvalues --    1.51954   1.52408   1.53101   1.53719   1.54401
 Alpha virt. eigenvalues --    1.55547   1.56476   1.57382   1.57774   1.59204
 Alpha virt. eigenvalues --    1.59606   1.60087   1.61463   1.62288   1.62731
 Alpha virt. eigenvalues --    1.65251   1.66128   1.67136   1.68313   1.68599
 Alpha virt. eigenvalues --    1.69517   1.71735   1.72475   1.72678   1.73996
 Alpha virt. eigenvalues --    1.74727   1.76751   1.77479   1.78834   1.80674
 Alpha virt. eigenvalues --    1.82060   1.82560   1.82818   1.83831   1.84576
 Alpha virt. eigenvalues --    1.85994   1.86666   1.87739   1.88764   1.91503
 Alpha virt. eigenvalues --    1.92133   1.93684   1.95885   1.96364   1.97185
 Alpha virt. eigenvalues --    2.01058   2.02503   2.04129   2.04377   2.05071
 Alpha virt. eigenvalues --    2.05818   2.06574   2.08783   2.09166   2.10509
 Alpha virt. eigenvalues --    2.10631   2.11887   2.13247   2.13660   2.14882
 Alpha virt. eigenvalues --    2.15569   2.17089   2.18232   2.20049   2.20696
 Alpha virt. eigenvalues --    2.21820   2.23082   2.25007   2.25479   2.26235
 Alpha virt. eigenvalues --    2.27635   2.28388   2.29550   2.30035   2.31044
 Alpha virt. eigenvalues --    2.31807   2.33684   2.34759   2.36019   2.36882
 Alpha virt. eigenvalues --    2.37578   2.37685   2.39184   2.41607   2.43366
 Alpha virt. eigenvalues --    2.44288   2.44912   2.46693   2.47477   2.48318
 Alpha virt. eigenvalues --    2.48703   2.49935   2.50197   2.51356   2.52344
 Alpha virt. eigenvalues --    2.53332   2.53583   2.55053   2.55797   2.56615
 Alpha virt. eigenvalues --    2.58370   2.58868   2.59201   2.59618   2.60500
 Alpha virt. eigenvalues --    2.62666   2.63425   2.64456   2.64790   2.65469
 Alpha virt. eigenvalues --    2.65803   2.66704   2.68081   2.70290   2.70966
 Alpha virt. eigenvalues --    2.71346   2.71888   2.72771   2.73292   2.74596
 Alpha virt. eigenvalues --    2.75887   2.75952   2.77413   2.78494   2.78912
 Alpha virt. eigenvalues --    2.81232   2.82422   2.83920   2.84649   2.86729
 Alpha virt. eigenvalues --    2.87369   2.88478   2.89802   2.90544   2.91223
 Alpha virt. eigenvalues --    2.93305   2.94257   2.95202   2.96277   2.97406
 Alpha virt. eigenvalues --    2.98235   2.98754   3.01420   3.02397   3.02897
 Alpha virt. eigenvalues --    3.03562   3.04021   3.05351   3.06759   3.07097
 Alpha virt. eigenvalues --    3.07261   3.08155   3.08518   3.10303   3.10674
 Alpha virt. eigenvalues --    3.11081   3.12660   3.12990   3.14773   3.15065
 Alpha virt. eigenvalues --    3.16322   3.17924   3.18350   3.19479   3.20148
 Alpha virt. eigenvalues --    3.21195   3.21372   3.22666   3.23842   3.23922
 Alpha virt. eigenvalues --    3.24850   3.25671   3.26200   3.26980   3.28046
 Alpha virt. eigenvalues --    3.28758   3.30272   3.30521   3.31556   3.32616
 Alpha virt. eigenvalues --    3.33593   3.33913   3.35042   3.35461   3.35958
 Alpha virt. eigenvalues --    3.36740   3.37686   3.39772   3.40239   3.41089
 Alpha virt. eigenvalues --    3.42323   3.43144   3.43796   3.44285   3.46213
 Alpha virt. eigenvalues --    3.47039   3.48093   3.48790   3.49833   3.52038
 Alpha virt. eigenvalues --    3.52559   3.54069   3.55643   3.56443   3.57346
 Alpha virt. eigenvalues --    3.58640   3.60576   3.61767   3.63175   3.64063
 Alpha virt. eigenvalues --    3.65114   3.67344   3.68953   3.70112   3.72497
 Alpha virt. eigenvalues --    3.72841   3.74731   3.75149   3.79121   3.80590
 Alpha virt. eigenvalues --    3.81936   3.84443   3.85750   3.87510   3.88327
 Alpha virt. eigenvalues --    3.91929   3.92888   3.93531   3.95344   3.95698
 Alpha virt. eigenvalues --    3.96389   3.97086   3.99833   4.00475   4.03989
 Alpha virt. eigenvalues --    4.05817   4.06153   4.06754   4.11065   4.12689
 Alpha virt. eigenvalues --    4.13415   4.14650   4.15201   4.17006   4.17864
 Alpha virt. eigenvalues --    4.20143   4.21320   4.22900   4.24585   4.27224
 Alpha virt. eigenvalues --    4.28382   4.28701   4.29294   4.31510   4.33152
 Alpha virt. eigenvalues --    4.35495   4.36613   4.38568   4.42134   4.43988
 Alpha virt. eigenvalues --    4.48298   4.49349   4.50347   4.52492   4.55790
 Alpha virt. eigenvalues --    4.57660   4.58224   4.61111   4.62791   4.67336
 Alpha virt. eigenvalues --    4.69563   4.74224   4.76678   4.79460   4.82083
 Alpha virt. eigenvalues --    4.84164   4.85801   4.88669   4.93663   4.95073
 Alpha virt. eigenvalues --    4.97650   5.03237   5.07580   5.07705   5.11416
 Alpha virt. eigenvalues --    5.17750   5.22273   5.24279   5.27040   5.36967
 Alpha virt. eigenvalues --    5.37991   5.39641   5.46930   5.49769   5.58895
 Alpha virt. eigenvalues --    5.65793   5.74702   5.76706   6.03056   6.07653
 Alpha virt. eigenvalues --    6.21084   6.21791   6.32377   6.36025   6.51318
 Alpha virt. eigenvalues --    6.57257   6.63223   6.71203   6.79053   6.94327
 Alpha virt. eigenvalues --    7.00490   7.16832  21.91121  22.11158  22.13767
 Alpha virt. eigenvalues --   22.17033  22.32025  22.36331  22.38542  22.48543
 Alpha virt. eigenvalues --   22.51467  22.55669  22.68474  22.92580  23.09440
 Alpha virt. eigenvalues --   43.42045  43.49563
          Condensed to atoms (all electrons):
               1          2          3          4          5          6
     1  O    7.872747  -0.101345   0.000000  -0.000000   0.000002   0.017888
     2  O   -0.101345   7.762393   0.000009   0.000007   0.000097   0.002860
     3  C    0.000000   0.000009   4.853310   0.347727  -0.000913  -0.002203
     4  C   -0.000000   0.000007   0.347727   5.124996   0.295375  -0.000955
     5  C    0.000002   0.000097  -0.000913   0.295375   5.018278  -0.171142
     6  C    0.017888   0.002860  -0.002203  -0.000955  -0.171142   5.172245
     7  C   -0.156794  -0.168912   0.000024  -0.000370  -0.000049   0.207802
     8  C   -0.000000  -0.000010   0.348312  -0.040964  -0.010307  -0.000566
     9  C   -0.000000  -0.000041   0.346477  -0.048444  -0.007539  -0.000222
    10  C   -0.000080  -0.001711  -0.013839  -0.089680   0.326389   0.115451
    11  C   -0.000042  -0.000899  -0.016261  -0.086135   0.339361   0.117334
    12  C   -0.000675   0.022023   0.003348   0.019477   0.106257   0.267544
    13  C   -0.000530   0.010301   0.004024   0.017807   0.096852   0.246770
    14  C   -0.001510   0.003881   0.000000   0.000046  -0.000183  -0.038618
    15  C    0.419418   0.722810   0.000003   0.000006  -0.000950   0.006957
    16  H   -0.000000   0.000000   0.393365  -0.052313   0.015546   0.000060
    17  H   -0.000000  -0.000000  -0.038397   0.397913  -0.057516   0.000411
    18  H   -0.000000   0.000000  -0.035787   0.381474  -0.056943   0.000712
    19  H    0.008103   0.003725  -0.000001   0.000004   0.000640  -0.043287
    20  H    0.000000   0.000029  -0.017213  -0.016562   0.009885  -0.000954
    21  H    0.000000   0.000000  -0.047190   0.002593  -0.010274   0.000227
    22  H    0.000000   0.000000  -0.040946   0.012760   0.001155  -0.000015
    23  H    0.000000   0.000000  -0.041311   0.013178   0.000933  -0.000017
    24  H    0.000000   0.000118  -0.021642  -0.015370   0.009499  -0.000819
    25  H    0.000000   0.000000  -0.048102   0.004101  -0.008897   0.000051
    26  H    0.000000  -0.000009  -0.004529  -0.010864  -0.077466   0.015895
    27  H   -0.000000  -0.000007  -0.004545  -0.010326  -0.084036   0.019798
    28  H   -0.000571   0.004929   0.000073  -0.000809   0.016433  -0.102117
    29  H   -0.000013   0.000364   0.000034  -0.000586   0.018608  -0.089408
    30  H    0.000351  -0.000605  -0.000000  -0.000006  -0.000088   0.003108
    31  H    0.001267   0.000916  -0.000000  -0.000002  -0.000009  -0.010203
    32  H    0.007592   0.000291   0.000000  -0.000001   0.000017   0.010415
    33  H    0.264212   0.006216   0.000000  -0.000000  -0.000003  -0.002034
               7          8          9         10         11         12
     1  O   -0.156794  -0.000000  -0.000000  -0.000080  -0.000042  -0.000675
     2  O   -0.168912  -0.000010  -0.000041  -0.001711  -0.000899   0.022023
     3  C    0.000024   0.348312   0.346477  -0.013839  -0.016261   0.003348
     4  C   -0.000370  -0.040964  -0.048444  -0.089680  -0.086135   0.019477
     5  C   -0.000049  -0.010307  -0.007539   0.326389   0.339361   0.106257
     6  C    0.207802  -0.000566  -0.000222   0.115451   0.117334   0.267544
     7  C    5.694525  -0.000010   0.000025   0.004405   0.016879  -0.102769
     8  C   -0.000010   4.988253  -0.051228  -0.000676  -0.001238   0.000951
     9  C    0.000025  -0.051228   5.006554  -0.001246   0.001718   0.001731
    10  C    0.004405  -0.000676  -0.001246   5.263514   0.053886   0.255718
    11  C    0.016879  -0.001238   0.001718   0.053886   5.238982  -0.126885
    12  C   -0.102769   0.000951   0.001731   0.255718  -0.126885   5.337895
    13  C   -0.098453   0.003283   0.000320  -0.115024   0.269569   0.000613
    14  C    0.280943   0.000001  -0.000001   0.003733  -0.000430   0.003742
    15  C    0.121869  -0.000008  -0.000020   0.008272  -0.000768  -0.027870
    16  H   -0.000000  -0.047502  -0.045200   0.000464   0.000335  -0.000064
    17  H    0.000000   0.010828  -0.011577   0.013462   0.002987   0.001476
    18  H    0.000005  -0.008854   0.011967   0.005589   0.016486  -0.002113
    19  H    0.316501   0.000001   0.000001  -0.001705   0.000435   0.018865
    20  H   -0.000012   0.398306  -0.009040  -0.000841  -0.008266   0.000650
    21  H    0.000000   0.396492   0.012461   0.000339   0.004175  -0.000196
    22  H   -0.000000   0.391572  -0.000888  -0.000226   0.000190  -0.000005
    23  H   -0.000000   0.000173   0.389231  -0.000029  -0.000187   0.000074
    24  H   -0.000054  -0.008422   0.400968  -0.006294  -0.001262   0.004490
    25  H   -0.000001   0.012256   0.397004   0.002700  -0.000332   0.000030
    26  H   -0.000934   0.000481   0.002026   0.443395   0.014248  -0.063853
    27  H   -0.000652   0.002588   0.000428   0.017337   0.450071  -0.004139
    28  H    0.012260   0.000009  -0.000031  -0.061183  -0.001617   0.448021
    29  H   -0.015681  -0.000015   0.000004  -0.003492  -0.065697   0.018540
    30  H   -0.036278  -0.000000   0.000000   0.000180  -0.000330  -0.006185
    31  H   -0.042508   0.000000  -0.000000  -0.000196  -0.000128   0.003339
    32  H   -0.030686  -0.000000   0.000000  -0.000105   0.000020   0.000752
    33  H    0.024771  -0.000000   0.000000   0.000009   0.000003  -0.000365
              13         14         15         16         17         18
     1  O   -0.000530  -0.001510   0.419418  -0.000000  -0.000000  -0.000000
     2  O    0.010301   0.003881   0.722810   0.000000  -0.000000   0.000000
     3  C    0.004024   0.000000   0.000003   0.393365  -0.038397  -0.035787
     4  C    0.017807   0.000046   0.000006  -0.052313   0.397913   0.381474
     5  C    0.096852  -0.000183  -0.000950   0.015546  -0.057516  -0.056943
     6  C    0.246770  -0.038618   0.006957   0.000060   0.000411   0.000712
     7  C   -0.098453   0.280943   0.121869  -0.000000   0.000000   0.000005
     8  C    0.003283   0.000001  -0.000008  -0.047502   0.010828  -0.008854
     9  C    0.000320  -0.000001  -0.000020  -0.045200  -0.011577   0.011967
    10  C   -0.115024   0.003733   0.008272   0.000464   0.013462   0.005589
    11  C    0.269569  -0.000430  -0.000768   0.000335   0.002987   0.016486
    12  C    0.000613   0.003742  -0.027870  -0.000064   0.001476  -0.002113
    13  C    5.349827  -0.003416   0.018605  -0.000108  -0.001723   0.000987
    14  C   -0.003416   5.009047  -0.033832  -0.000000  -0.000002  -0.000003
    15  C    0.018605  -0.033832   4.618053   0.000000   0.000001   0.000001
    16  H   -0.000108  -0.000000   0.000000   0.686899  -0.002864  -0.005008
    17  H   -0.001723  -0.000002   0.000001  -0.002864   0.587288  -0.021203
    18  H    0.000987  -0.000003   0.000001  -0.005008  -0.021203   0.596577
    19  H    0.005795  -0.022267  -0.005920  -0.000000   0.000000   0.000000
    20  H    0.004645   0.000001   0.000024   0.009248  -0.000476   0.000314
    21  H   -0.000574  -0.000000   0.000000  -0.003220   0.000001   0.003523
    22  H    0.000042   0.000000  -0.000000  -0.009089  -0.000448  -0.000105
    23  H   -0.000003  -0.000000   0.000000  -0.009526   0.000141  -0.000575
    24  H    0.000588   0.000001   0.000048   0.009385   0.000602  -0.000505
    25  H   -0.000036  -0.000000   0.000000  -0.003579   0.003744   0.000161
    26  H   -0.001715   0.000049   0.000110  -0.000175   0.005033   0.000457
    27  H   -0.070951   0.000023  -0.000006  -0.000170   0.000487   0.006079
    28  H    0.010898  -0.002638  -0.006552  -0.000003  -0.000056   0.000030
    29  H    0.440858   0.000849   0.001210  -0.000004   0.000031  -0.000085
    30  H    0.006926   0.392204   0.007528   0.000000   0.000000   0.000001
    31  H    0.002280   0.397985   0.000823   0.000000   0.000000   0.000000
    32  H   -0.001038   0.389886  -0.003578   0.000000   0.000000   0.000000
    33  H    0.000004  -0.001352  -0.021385   0.000000   0.000000   0.000000
              19         20         21         22         23         24
     1  O    0.008103   0.000000   0.000000   0.000000   0.000000   0.000000
     2  O    0.003725   0.000029   0.000000   0.000000   0.000000   0.000118
     3  C   -0.000001  -0.017213  -0.047190  -0.040946  -0.041311  -0.021642
     4  C    0.000004  -0.016562   0.002593   0.012760   0.013178  -0.015370
     5  C    0.000640   0.009885  -0.010274   0.001155   0.000933   0.009499
     6  C   -0.043287  -0.000954   0.000227  -0.000015  -0.000017  -0.000819
     7  C    0.316501  -0.000012   0.000000  -0.000000  -0.000000  -0.000054
     8  C    0.000001   0.398306   0.396492   0.391572   0.000173  -0.008422
     9  C    0.000001  -0.009040   0.012461  -0.000888   0.389231   0.400968
    10  C   -0.001705  -0.000841   0.000339  -0.000226  -0.000029  -0.006294
    11  C    0.000435  -0.008266   0.004175   0.000190  -0.000187  -0.001262
    12  C    0.018865   0.000650  -0.000196  -0.000005   0.000074   0.004490
    13  C    0.005795   0.004645  -0.000574   0.000042  -0.000003   0.000588
    14  C   -0.022267   0.000001  -0.000000   0.000000  -0.000000   0.000001
    15  C   -0.005920   0.000024   0.000000  -0.000000   0.000000   0.000048
    16  H   -0.000000   0.009248  -0.003220  -0.009089  -0.009526   0.009385
    17  H    0.000000  -0.000476   0.000001  -0.000448   0.000141   0.000602
    18  H    0.000000   0.000314   0.003523  -0.000105  -0.000575  -0.000505
    19  H    0.627676  -0.000003   0.000000  -0.000000   0.000000  -0.000000
    20  H   -0.000003   0.540238  -0.024440  -0.024345  -0.000966   0.007240
    21  H    0.000000  -0.024440   0.583583  -0.023946  -0.000266  -0.000049
    22  H   -0.000000  -0.024345  -0.023946   0.577591   0.004313  -0.000870
    23  H    0.000000  -0.000966  -0.000266   0.004313   0.580274  -0.023030
    24  H   -0.000000   0.007240  -0.000049  -0.000870  -0.023030   0.535083
    25  H   -0.000000  -0.000030  -0.000700  -0.000210  -0.023474  -0.025217
    26  H    0.000024  -0.000140  -0.000010  -0.000008   0.000122  -0.002870
    27  H   -0.000098  -0.002699   0.002551   0.000089  -0.000010  -0.000120
    28  H    0.001078  -0.000003  -0.000000   0.000000   0.000002   0.000003
    29  H    0.011430   0.000014  -0.000045   0.000001   0.000000   0.000002
    30  H   -0.008385  -0.000000   0.000000  -0.000000   0.000000  -0.000000
    31  H    0.008133  -0.000000   0.000000   0.000000  -0.000000  -0.000000
    32  H   -0.006369  -0.000000   0.000000   0.000000  -0.000000  -0.000000
    33  H   -0.001253  -0.000000   0.000000  -0.000000   0.000000  -0.000000
              25         26         27         28         29         30
     1  O    0.000000   0.000000  -0.000000  -0.000571  -0.000013   0.000351
     2  O    0.000000  -0.000009  -0.000007   0.004929   0.000364  -0.000605
     3  C   -0.048102  -0.004529  -0.004545   0.000073   0.000034  -0.000000
     4  C    0.004101  -0.010864  -0.010326  -0.000809  -0.000586  -0.000006
     5  C   -0.008897  -0.077466  -0.084036   0.016433   0.018608  -0.000088
     6  C    0.000051   0.015895   0.019798  -0.102117  -0.089408   0.003108
     7  C   -0.000001  -0.000934  -0.000652   0.012260  -0.015681  -0.036278
     8  C    0.012256   0.000481   0.002588   0.000009  -0.000015  -0.000000
     9  C    0.397004   0.002026   0.000428  -0.000031   0.000004   0.000000
    10  C    0.002700   0.443395   0.017337  -0.061183  -0.003492   0.000180
    11  C   -0.000332   0.014248   0.450071  -0.001617  -0.065697  -0.000330
    12  C    0.000030  -0.063853  -0.004139   0.448021   0.018540  -0.006185
    13  C   -0.000036  -0.001715  -0.070951   0.010898   0.440858   0.006926
    14  C   -0.000000   0.000049   0.000023  -0.002638   0.000849   0.392204
    15  C    0.000000   0.000110  -0.000006  -0.006552   0.001210   0.007528
    16  H   -0.003579  -0.000175  -0.000170  -0.000003  -0.000004   0.000000
    17  H    0.003744   0.005033   0.000487  -0.000056   0.000031   0.000000
    18  H    0.000161   0.000457   0.006079   0.000030  -0.000085   0.000001
    19  H   -0.000000   0.000024  -0.000098   0.001078   0.011430  -0.008385
    20  H   -0.000030  -0.000140  -0.002699  -0.000003   0.000014  -0.000000
    21  H   -0.000700  -0.000010   0.002551  -0.000000  -0.000045   0.000000
    22  H   -0.000210  -0.000008   0.000089   0.000000   0.000001  -0.000000
    23  H   -0.023474   0.000122  -0.000010   0.000002   0.000000   0.000000
    24  H   -0.025217  -0.002870  -0.000120   0.000003   0.000002  -0.000000
    25  H    0.581376   0.001684  -0.000015  -0.000014   0.000000  -0.000000
    26  H    0.001684   0.590539  -0.000223  -0.010050   0.000126   0.000017
    27  H   -0.000015  -0.000223   0.599338   0.000108  -0.010602   0.000007
    28  H   -0.000014  -0.010050   0.000108   0.599526  -0.000291  -0.000213
    29  H    0.000000   0.000126  -0.010602  -0.000291   0.605572   0.000243
    30  H   -0.000000   0.000017   0.000007  -0.000213   0.000243   0.559164
    31  H    0.000000   0.000018  -0.000001   0.004356   0.000060  -0.021794
    32  H    0.000000  -0.000003  -0.000001  -0.000120  -0.000139  -0.022219
    33  H    0.000000   0.000000   0.000000   0.000005  -0.000005   0.000128
              31         32         33
     1  O    0.001267   0.007592   0.264212
     2  O    0.000916   0.000291   0.006216
     3  C   -0.000000   0.000000   0.000000
     4  C   -0.000002  -0.000001  -0.000000
     5  C   -0.000009   0.000017  -0.000003
     6  C   -0.010203   0.010415  -0.002034
     7  C   -0.042508  -0.030686   0.024771
     8  C    0.000000  -0.000000  -0.000000
     9  C   -0.000000   0.000000   0.000000
    10  C   -0.000196  -0.000105   0.000009
    11  C   -0.000128   0.000020   0.000003
    12  C    0.003339   0.000752  -0.000365
    13  C    0.002280  -0.001038   0.000004
    14  C    0.397985   0.389886  -0.001352
    15  C    0.000823  -0.003578  -0.021385
    16  H    0.000000   0.000000   0.000000
    17  H    0.000000   0.000000   0.000000
    18  H    0.000000   0.000000   0.000000
    19  H    0.008133  -0.006369  -0.001253
    20  H   -0.000000  -0.000000  -0.000000
    21  H    0.000000   0.000000   0.000000
    22  H    0.000000   0.000000  -0.000000
    23  H   -0.000000  -0.000000   0.000000
    24  H   -0.000000  -0.000000  -0.000000
    25  H    0.000000   0.000000   0.000000
    26  H    0.000018  -0.000003   0.000000
    27  H   -0.000001  -0.000001   0.000000
    28  H    0.004356  -0.000120   0.000005
    29  H    0.000060  -0.000139  -0.000005
    30  H   -0.021794  -0.022219   0.000128
    31  H    0.560979  -0.022703  -0.000295
    32  H   -0.022703   0.540901  -0.000235
    33  H   -0.000295  -0.000235   0.417700
 Mulliken charges:
               1
     1  O   -0.330021
     2  O   -0.267431
     3  C    0.036176
     4  C   -0.244079
     5  C    0.230987
     6  C    0.257031
     7  C   -0.025848
     8  C   -0.383706
     9  C   -0.395438
    10  C   -0.218516
    11  C   -0.216203
    12  C   -0.180417
    13  C   -0.197425
    14  C   -0.378140
    15  C    0.175151
    16  H    0.063521
    17  H    0.109856
    18  H    0.106818
    19  H    0.086877
    20  H    0.135396
    21  H    0.104965
    22  H    0.113387
    23  H    0.110952
    24  H    0.138498
    25  H    0.107499
    26  H    0.098624
    27  H    0.089699
    28  H    0.088539
    29  H    0.088117
    30  H    0.126245
    31  H    0.117685
    32  H    0.137322
    33  H    0.313879
 Sum of Mulliken charges =  -0.00000
 Mulliken charges with hydrogens summed into heavy atoms:
               1
     1  O   -0.016141
     2  O   -0.267431
     3  C    0.099697
     4  C   -0.027406
     5  C    0.230987
     6  C    0.257031
     7  C    0.061029
     8  C   -0.029958
     9  C   -0.038489
    10  C   -0.119892
    11  C   -0.126504
    12  C   -0.091878
    13  C   -0.109308
    14  C    0.003112
    15  C    0.175151
 Electronic spatial extent (au):  <R**2>=           4280.0160
 Charge=             -0.0000 electrons
 Dipole moment (field-independent basis, Debye):
    X=              0.8975    Y=             -0.9626    Z=              0.0916  Tot=              1.3193
 Quadrupole moment (field-independent basis, Debye-Ang):
   XX=            -79.1425   YY=            -94.4660   ZZ=            -88.7168
   XY=              2.6893   XZ=              0.8488   YZ=             -1.8421
 Traceless Quadrupole moment (field-independent basis, Debye-Ang):
   XX=              8.2993   YY=             -7.0243   ZZ=             -1.2750
   XY=              2.6893   XZ=              0.8488   YZ=             -1.8421
 Octapole moment (field-independent basis, Debye-Ang**2):
  XXX=             66.7798  YYY=             12.4580  ZZZ=             -0.5023  XYY=             21.8507
  XXY=             30.3488  XXZ=              3.1675  XZZ=             12.7356  YZZ=              2.3283
  YYZ=              8.0666  XYZ=              3.0623
 Hexadecapole moment (field-independent basis, Debye-Ang**3):
 XXXX=          -4187.0842 YYYY=           -774.6655 ZZZZ=           -548.2997 XXXY=            222.7853
 XXXZ=             25.1764 YYYX=             63.1230 YYYZ=              6.0586 ZZZX=             21.8548
 ZZZY=            -12.1939 XXYY=           -769.7909 XXZZ=           -831.6030 YYZZ=           -217.5350
 XXYZ=             18.8955 YYXZ=              7.1170 ZZXY=             21.4615
 N-N= 9.854687062452D+02 E-N=-3.499907512306D+03  KE= 6.532341519739D+02
 Unable to Open any file for archive entry.
 1\1\GINC-NODE12\SP\RPBEPBE\def2TZVP\C13H18O2\RPATON\13-Feb-2026\0\\# g
 eom=check guess=read PBEPBE/def2TZVP emp=GD3BJ\\PBE0 Becke-Johnson dam
 ped\\0,1\O,0,-4.4457,-1.0032,0.4113\O,0,-2.4005,-1.9114,0.0531\C,0,3.9
 024,-0.4411,0.0362\C,0,3.1486,0.8194,-0.4313\C,0,1.6528,0.7393,-0.2472
 \C,0,-1.0946,0.5935,0.0901\C,0,-2.5728,0.5152,0.2719\C,0,3.6076,-0.776
 ,1.5005\C,0,3.5239,-1.6299,-0.8505\C,0,0.869,0.2281,-1.2695\C,0,1.0897
 ,1.1791,0.9405\C,0,-0.5135,0.1549,-1.0998\C,0,-0.2929,1.1057,1.1102\C,
 0,-3.3736,1.3495,-0.7486\C,0,-3.1004,-0.9233,0.2332\H,0,4.9775,-0.2527
 ,-0.0735\H,0,3.3789,1.0242,-1.4854\H,0,3.5298,1.6907,0.1182\H,0,-2.824
 3,0.8896,1.2739\H,0,2.5794,-1.1167,1.6574\H,0,3.7958,0.0879,2.1462\H,0
 ,4.2658,-1.5849,1.8375\H,0,4.1778,-2.4814,-0.6301\H,0,2.4964,-1.9688,-
 0.6863\H,0,3.6494,-1.3895,-1.9115\H,0,1.3084,-0.1099,-2.2035\H,0,1.702
 4,1.5855,1.7398\H,0,-1.1208,-0.2449,-1.9075\H,0,-0.729,1.4534,2.043\H,
 0,-3.0012,2.3792,-0.784\H,0,-3.3032,0.9294,-1.7582\H,0,-4.4357,1.3895,
 -0.4835\H,0,-4.7639,-1.9305,0.3782\\Version=AS64L-G16RevC.01\State=1-A
 \HF=-656.1396455\RMSD=5.653e-09\Dipole=-0.3479466,0.3824431,0.0456147\
 Quadrupole=6.233577,-5.3609572,-0.8726198,1.842949,-0.5002345,1.252062
 4\PG=C01 [X(C13H18O2)]\\@
 The archive entry for this job was punched.


 I WISH TO HAVE NO CONNECTION WITH ANY SHIP THAT DOES NOT SAIL FAST,
 FOR I INTEND TO GO IN HARM'S WAY.
     -- JOHN PAUL JONES, USN 1747-1792
 Job cpu time:       0 days  0 hours 24 minutes 46.0 seconds.
 Elapsed time:       0 days  0 hours  1 minutes 42.1 seconds.
 File lengths (MBytes):  RWF=    175 Int=      0 D2E=      0 Chk=     21 Scr=      1
 Normal termination of Gaussian 16 at Fri Feb 13 22:26:13 2026.
