285

C          6.10650      -11.37790        0.00000
C          5.11480      -10.43850        0.00000
C          6.10650       -9.49900        0.00000
C          5.11480       -8.50730        0.00000
C          6.10650       -7.56790        0.00000
C          5.11480       -6.62840        0.00000
C          6.10650       -5.68900        0.00000
C          5.11480       -4.74950        0.00000
C          6.10650       -3.81000        0.00000
C          5.11480       -2.81840        0.00000
C          6.10650       -1.87890        0.00000
C          5.11480       -0.93950        0.00000
C          7.41130      -11.37790        0.00000
O          3.81000      -10.43850        0.00000
C          7.41130       -9.49900        0.00000
O          3.81000       -6.62840        0.00000
C          4.85390      -18.47610        0.00000
O          7.41130       -5.68900        0.00000
C          3.81000       -4.74950        0.00000
O          3.81000       -2.81840        0.00000
C          7.41130       -1.87890        0.00000
C          6.10650        0.00000        0.00000
C          3.81000       -0.93950        0.00000
C          2.81840        0.00000        0.00000
O          1.51360        0.00000        0.00000
S          3.13150       -5.48020        0.00000
O          4.27980       -4.80170        0.00000
O          2.40080       -4.33200        0.00000
C          5.06260      -14.92700        0.00000
O          4.69730      -16.23180        0.00000
C          5.53240      -17.32780        0.00000
C          6.83720      -17.32780        0.00000
C          7.72450      -16.23180        0.00000
C          7.46350      -14.92700        0.00000
C          6.31530      -14.30070        0.00000
O          6.31530      -12.99590        0.00000
C          5.01050      -47.23400        0.00000
C          3.96660      -12.99590        0.00000
C          3.96660      -14.30070        0.00000
C          5.53240      -19.62430        0.00000
C          6.83720      -19.62430        0.00000
O          7.51570      -18.47610        0.00000
O          4.85390      -20.82470        0.00000
C          5.53240      -21.97290        0.00000
C          6.83720      -21.97290        0.00000
C          7.51570      -20.82470        0.00000
C          4.85390      -22.96460        0.00000
C          5.53240      -23.95620        0.00000
C          6.83720      -23.95620        0.00000
O          7.51570      -22.96460        0.00000
O          4.85390      -25.00010        0.00000
C          5.42800      -26.09610        0.00000
C          6.78500      -26.09610        0.00000
C          7.51570      -25.00010        0.00000
O          2.81840      -12.31740        0.00000
O          2.81840      -14.97920        0.00000
O          8.61170      -14.30070        0.00000
C          8.19420      -17.32780        0.00000
C          8.19420      -21.97290        0.00000
O          3.49690      -22.96460        0.00000
O          7.82880      -27.14000        0.00000
C          4.74950      -27.08780        0.00000
C          5.42800      -28.23600        0.00000
C          4.85390      -29.17550        0.00000
C          5.53240      -30.32370        0.00000
O          3.44470      -27.08780        0.00000
O          6.78500      -28.23600        0.00000
O          4.85390      -31.52410        0.00000
C          5.53240      -32.67240        0.00000
C          6.83720      -32.67240        0.00000
C          7.51570      -31.52410        0.00000
C          6.83720      -30.32370        0.00000
C          4.85390      -33.66400        0.00000
C          5.53240      -34.65570        0.00000
C          6.83720      -34.65570        0.00000
O          7.51570      -33.66400        0.00000
O          4.85390      -35.75170        0.00000
C          5.53240      -36.84770        0.00000
C          6.83720      -36.84770        0.00000
C          7.51570      -35.75170        0.00000
C          4.85390      -37.83940        0.00000
C          5.53240      -39.03980        0.00000
C          6.83720      -39.03980        0.00000
O          7.51570      -37.83940        0.00000
O          4.85390      -40.03150        0.00000
C          5.53240      -41.12750        0.00000
C          6.83720      -41.12750        0.00000
C          7.51570      -40.03150        0.00000
O          7.51570      -29.17550        0.00000
S          8.87270      -29.17550        0.00000
O          8.87270      -27.81850        0.00000
O         10.17750      -29.17550        0.00000
O          8.87270      -30.53250        0.00000
O          8.87270      -31.52410        0.00000
O          3.49690      -37.83940        0.00000
O          8.87270      -40.03150        0.00000
O          7.51570      -42.27570        0.00000
C          5.01050      -42.06700        0.00000
C          3.81000      -42.74550        0.00000
C          3.81000      -43.99810        0.00000
C          5.01050      -44.67660        0.00000
C          6.15870      -43.99810        0.00000
O          6.15870      -42.74550        0.00000
O          5.01050      -45.92920        0.00000
C          6.15870      -46.60770        0.00000
C          7.30690      -45.92920        0.00000
C          7.30690      -44.67660        0.00000
C          5.11480      -12.31740        0.00000
C          6.15870      -47.91250        0.00000
C          5.01050      -48.59100        0.00000
C          6.15870      -49.26950        0.00000
C          7.46350      -49.26950        0.00000
C          7.82880      -50.57430        0.00000
C          9.13360      -50.88750        0.00000
C         10.07310      -49.94800        0.00000
C          9.70780      -48.64320        0.00000
O          8.45510      -48.33000        0.00000
O         11.37790      -50.31330        0.00000
C         12.31740      -49.37390        0.00000
C         11.95200      -48.06910        0.00000
C         10.69940      -47.70370        0.00000
O          9.44680      -52.19230        0.00000
O          6.88940      -51.51380        0.00000
O          3.65350      -47.23400        0.00000
O          3.65350      -48.59100        0.00000
C         13.62220      -49.68700        0.00000
O         12.89150      -47.12960        0.00000
C         14.56160      -50.67870        0.00000
C         15.86640      -50.31330        0.00000
C         16.17960      -49.00850        0.00000
C         15.24010      -48.06910        0.00000
O         13.93530      -48.43440        0.00000
O         17.48440      -48.69540        0.00000
C         17.84980      -47.39060        0.00000
C         16.91030      -46.45110        0.00000
C         15.60550      -46.76430        0.00000
C         19.15460      -47.02520        0.00000
C         19.46770      -45.77260        0.00000
C         18.52830      -44.78100        0.00000
O         17.22340      -45.14630        0.00000
O         20.82470      -45.61600        0.00000
C         21.50320      -44.46780        0.00000
C         21.08570      -43.21520        0.00000
C         19.83310      -42.74550        0.00000
C         18.68480      -43.47620        0.00000
C         22.80800      -44.72880        0.00000
C         23.69530      -43.68490        0.00000
C         23.27770      -42.43230        0.00000
O         21.97290      -42.17130        0.00000
O         25.00010      -43.94590        0.00000
C         25.88740      -42.95420        0.00000
C         25.46980      -41.70160        0.00000
C         24.11280      -41.44070        0.00000
C         27.19220      -43.21520        0.00000
C         28.07940      -42.17130        0.00000
C         27.66190      -40.91870        0.00000
O         26.30490      -40.65780        0.00000
O         14.19630      -51.93130        0.00000
C         17.11910      -49.94800        0.00000
O         14.66600      -45.82480        0.00000
C         15.97080      -45.51160        0.00000
C         20.40720      -46.71210        0.00000
C         20.72030      -41.91040        0.00000
C         24.06060      -44.98970        0.00000
C         27.97500      -39.61390        0.00000
C         29.27990      -39.30080        0.00000
C         29.64520      -37.99600        0.00000
C         28.65350      -37.05650        0.00000
C         27.40090      -37.36970        0.00000
O         27.03560      -38.67450        0.00000
O         29.01890      -35.75170        0.00000
C         28.07940      -34.81220        0.00000
C         26.77460      -35.17760        0.00000
C         26.46150      -36.43020        0.00000
C         28.60140      -33.61180        0.00000
C         27.97500      -32.41140        0.00000
C         26.67020      -32.15040        0.00000
C         25.67860      -33.03770        0.00000
O         25.67860      -34.39470        0.00000
O         26.40930      -30.84560        0.00000
C         25.15670      -30.42810        0.00000
C         24.16500      -31.26320        0.00000
C         24.42600      -32.62020        0.00000
C         24.89570      -29.12330        0.00000
C         23.64310      -28.65350        0.00000
C         22.59920      -29.54080        0.00000
O         22.91240      -30.84560        0.00000
O         23.74750      -27.34870        0.00000
C         22.80800      -26.35710        0.00000
C         21.55540      -26.25270        0.00000
C         20.51160      -27.14000        0.00000
C         20.45940      -28.44480        0.00000
C         21.34660      -29.43640        0.00000
C         23.59090      -25.20890        0.00000
C         23.01680      -24.06060        0.00000
C         21.71200      -23.95620        0.00000
O         20.92910      -25.05230        0.00000
O         23.74750      -22.91240        0.00000
C         23.17340      -21.71200        0.00000
C         21.86860      -21.65980        0.00000
C         21.08570      -22.75580        0.00000
C         23.90410      -20.61590        0.00000
C         23.32990      -19.41550        0.00000
C         21.97290      -19.36330        0.00000
O         21.24220      -20.45940        0.00000
O         24.06060      -18.31950        0.00000
C         23.48650      -17.11910        0.00000
C         22.18170      -17.01470        0.00000
C         21.39880      -18.16290        0.00000
C         24.16500      -15.97080        0.00000
C         23.48650      -14.82260        0.00000
C         24.16500      -13.62220        0.00000
C         23.48650      -12.47390        0.00000
C         24.16500      -11.32570        0.00000
C         23.48650      -10.17750        0.00000
C         24.16500       -9.02930        0.00000
C         23.48650       -7.82880        0.00000
C         25.52200      -11.32570        0.00000
C         22.12950      -12.47390        0.00000
O         22.12950      -14.82260        0.00000
O         25.52200      -15.97080        0.00000
C         20.66810      -19.36330        0.00000
C         20.51160      -21.65980        0.00000
C         20.35500      -23.95620        0.00000
C         26.09610      -29.48860        0.00000
C         27.60970      -31.21100        0.00000
C         29.33200      -34.44690        0.00000
C         26.09610      -37.73500        0.00000
C         28.65350      -38.46570        0.00000
O         30.42810      -39.92710        0.00000
O          2.60960      -42.06700        0.00000
O          2.60960      -44.67660        0.00000
O          8.45510      -46.60770        0.00000
H          6.47180      -12.31740        0.00000
H          7.46350      -13.67440        0.00000
H          3.91440      -15.60550        0.00000
H          4.17540      -17.32780        0.00000
H          8.19420      -19.62430        0.00000
H          4.17540      -19.62430        0.00000
H          4.17540      -21.97290        0.00000
H          4.17540      -23.95620        0.00000
H          4.12320      -26.09610        0.00000
H          8.19420      -23.95620        0.00000
H          4.17540      -30.32370        0.00000
H          4.17540      -32.67240        0.00000
H          4.17540      -36.84770        0.00000
H          4.17540      -34.65570        0.00000
H          8.19420      -32.67240        0.00000
H          8.19420      -34.65570        0.00000
H          8.19420      -36.84770        0.00000
H          4.17540      -39.03980        0.00000
H          4.17540      -41.12750        0.00000
H          8.19420      -39.03980        0.00000
H          6.26310      -41.70160        0.00000
H          7.46350      -43.63270        0.00000
H          3.81000      -45.30290        0.00000
H          4.64510      -46.71210        0.00000
H          7.46350      -47.91250        0.00000
H         12.63050      -50.67870        0.00000
H          9.34240      -47.39060        0.00000
H         10.43850      -51.25280        0.00000
H         12.94370      -48.53880        0.00000
H         14.30070      -47.12960        0.00000
H         18.78920      -48.33000        0.00000
H         17.58880      -43.84150        0.00000
H         22.91240      -41.12750        0.00000
H         24.79130      -40.50120        0.00000
H         26.82680      -40.08370        0.00000
H         22.18170      -45.61600        0.00000
H         26.56590      -44.10250        0.00000
H         29.95840      -36.69120        0.00000
H         25.52200      -35.49070        0.00000
H         24.53040      -33.71620        0.00000
H         24.79130      -28.02720        0.00000
H         21.71200      -30.48030        0.00000
H         23.22560      -32.25480        0.00000
H         20.19840      -26.25270        0.00000
H         24.21720      -26.35710        0.00000
H         24.37380      -24.06060        0.00000
H         24.53040      -21.71200        0.00000
H         24.68690      -19.41550        0.00000
H         24.84350      -17.11910        0.00000
O          1.98330       -6.15870        0.00000
Na         0.00000       -7.88100        0.00000
Na        10.54280      -27.81850        0.00000
